     Program PWSCF v.6.3MaX starts on  8Apr2019 at 10:39: 4

     R & G space division:  proc/nbgrp/npool/nimage =      32
     Waiting for input...
     Reading input from standard input

     Current dimensions of program PWSCF are:
     Max number of different atomic species (ntypx) = 10
     Max number of k-points (npk) =  40000
     Max angular momentum in pseudopotentials (lmaxx) =  3
               file Mn.pbe-spn-kjpaw_psl.0.3.1.UPF: wavefunction(s)  3P 3D renormalized
               file Mn.pbe-spn-kjpaw_psl.0.3.1.UPF: wavefunction(s)  3P 3D renormalized
               file Au.pbe-dn-kjpaw_psl.0.1.UPF: wavefunction(s)  6S 6P 5D renormalized

     Found symmetry operation: I + (  0.0000  0.0000 -0.5000)
     This is a supercell, fractional translations are disabled

     bravais-lattice index     =            0
     lattice parameter (alat)  =       6.4153  a.u.
     unit-cell volume          =    2724.7774 (a.u.)^3
     number of atoms/cell      =           24
     number of atomic types    =            3
     number of electrons       =       296.00
     number of Kohn-Sham states=          178
     kinetic-energy cutoff     =      45.0000  Ry
     charge density cutoff     =     400.0000  Ry
     convergence threshold     =      1.0E-06
     mixing beta               =       0.1000
     number of iterations used =            8  plain     mixing
     Exchange-correlation      = SLA PW PBX PBC ( 1  4  3  4 0 0)

     celldm(1)=   6.415315  celldm(2)=   0.000000  celldm(3)=   0.000000
     celldm(4)=   0.000000  celldm(5)=   0.000000  celldm(6)=   0.000000

     crystal axes: (cart. coord. in units of alat)
               a(1) = (   1.000000   0.000000   0.000000 )
               a(2) = (   0.000000   1.000000   0.000000 )
               a(3) = (   0.000000   0.000000  10.319937 )

     reciprocal axes: (cart. coord. in units 2 pi/alat)
               b(1) = (  1.000000  0.000000  0.000000 )
               b(2) = (  0.000000  1.000000  0.000000 )
               b(3) = (  0.000000  0.000000  0.096900 )

     PseudoPot. # 1 for Mn read from file:
     ./pseudo/Mn.pbe-spn-kjpaw_psl.0.3.1.UPF
     MD5 check sum: 7b43a3fb0e93e198b8dd8488d8cf503e
     Pseudo is Projector augmented-wave + core cor, Zval = 15.0
     Generated using "atomic" code by A. Dal Corso v.5.0.99 svn rev. 10869
     Shape of augmentation charge: PSQ
     Using radial grid of 1187 points,  6 beta functions with:
                l(1) =   0
                l(2) =   0
                l(3) =   1
                l(4) =   1
                l(5) =   2
                l(6) =   2
     Q(r) pseudized with 0 coefficients

     PseudoPot. # 2 for Mn read from file:
     ./pseudo/Mn.pbe-spn-kjpaw_psl.0.3.1.UPF
     MD5 check sum: 7b43a3fb0e93e198b8dd8488d8cf503e
     Pseudo is Projector augmented-wave + core cor, Zval = 15.0
     Generated using "atomic" code by A. Dal Corso v.5.0.99 svn rev. 10869
     Shape of augmentation charge: PSQ
     Using radial grid of 1187 points,  6 beta functions with:
                l(1) =   0
                l(2) =   0
                l(3) =   1
                l(4) =   1
                l(5) =   2
                l(6) =   2
     Q(r) pseudized with 0 coefficients

     PseudoPot. # 3 for Au read from file:
     ./pseudo/Au.pbe-dn-kjpaw_psl.0.1.UPF
     MD5 check sum: be11e2e8e535ebe2b3ccfb4f88f554cb
     Pseudo is Projector augmented-wave + core cor, Zval = 11.0
     Generated using "atomic" code by A. Dal Corso v.5.0.2 svn rev. 9415
     Shape of augmentation charge: PSQ
     Using radial grid of 1279 points,  6 beta functions with:
                l(1) =   0
                l(2) =   0
                l(3) =   1
                l(4) =   1
                l(5) =   2
                l(6) =   2
     Q(r) pseudized with 0 coefficients

     atomic species   valence    mass     pseudopotential
        Mn1           15.00    54.93800     Mn( 1.00)
        Mn2           15.00    54.93800     Mn( 1.00)
        Au            11.00   196.96600     Au( 1.00)

     Starting magnetic structure
     atomic species   magnetization
        Mn1          0.800
        Mn2         -0.800
        Au           0.000

     Full LDA+U calculation (l_max = 2) with parameters (eV):
     U(  1) =   3.1200   J(  1) =   0.7000   B(  1) =   0.0803
     U(  2) =   3.1200   J(  2) =   0.7000   B(  2) =   0.0803

      8 Sym. Ops. (no inversion) found

   Cartesian axes

     site n.     atom                  positions (alat units)
         1           Mn1 tau(   1) = (   0.0000000   0.0000000   0.0000000  )
         2           Mn1 tau(   2) = (   0.5000000   0.5000000   1.2899921  )
         3           Mn1 tau(   3) = (   0.0000000   0.0000000   2.5799843  )
         4           Mn2 tau(   4) = (   0.5000000   0.5000000   3.8699764  )
         5           Mn1 tau(   5) = (   0.0000000   0.0000000   5.1599686  )
         6           Mn1 tau(   6) = (   0.5000000   0.5000000   6.4499607  )
         7           Mn1 tau(   7) = (   0.0000000   0.0000000   7.7399528  )
         8           Mn2 tau(   8) = (   0.5000000   0.5000000   9.0299450  )
         9           Au  tau(   9) = (   0.5000000   0.5000000   0.4127975  )
        10           Au  tau(  10) = (   0.0000000   0.0000000   0.8771947  )
        11           Au  tau(  11) = (   0.0000000   0.0000000   1.7027896  )
        12           Au  tau(  12) = (   0.5000000   0.5000000   2.1671868  )
        13           Au  tau(  13) = (   0.5000000   0.5000000   2.9927818  )
        14           Au  tau(  14) = (   0.0000000   0.0000000   3.4571789  )
        15           Au  tau(  15) = (   0.0000000   0.0000000   4.2827739  )
        16           Au  tau(  16) = (   0.5000000   0.5000000   4.7471711  )
        17           Au  tau(  17) = (   0.5000000   0.5000000   5.5727660  )
        18           Au  tau(  18) = (   0.0000000   0.0000000   6.0371632  )
        19           Au  tau(  19) = (   0.0000000   0.0000000   6.8627582  )
        20           Au  tau(  20) = (   0.5000000   0.5000000   7.3271553  )
        21           Au  tau(  21) = (   0.5000000   0.5000000   8.1527503  )
        22           Au  tau(  22) = (   0.0000000   0.0000000   8.6171475  )
        23           Au  tau(  23) = (   0.0000000   0.0000000   9.4427424  )
        24           Au  tau(  24) = (   0.5000000   0.5000000   9.9071396  )

     number of k points=    45 (tetrahedron method)
                       cart. coord. in units 2pi/alat
        k(    1) = (   0.0000000   0.0000000   0.0000000), wk =   0.0039062
        k(    2) = (   0.0000000   0.0000000   0.0242250), wk =   0.0078125
        k(    3) = (   0.0000000   0.0000000  -0.0484499), wk =   0.0039062
        k(    4) = (   0.0000000   0.1250000   0.0000000), wk =   0.0156250
        k(    5) = (   0.0000000   0.1250000   0.0242250), wk =   0.0312500
        k(    6) = (   0.0000000   0.1250000  -0.0484499), wk =   0.0156250
        k(    7) = (   0.0000000   0.2500000   0.0000000), wk =   0.0156250
        k(    8) = (   0.0000000   0.2500000   0.0242250), wk =   0.0312500
        k(    9) = (   0.0000000   0.2500000  -0.0484499), wk =   0.0156250
        k(   10) = (   0.0000000   0.3750000   0.0000000), wk =   0.0156250
        k(   11) = (   0.0000000   0.3750000   0.0242250), wk =   0.0312500
        k(   12) = (   0.0000000   0.3750000  -0.0484499), wk =   0.0156250
        k(   13) = (   0.0000000  -0.5000000   0.0000000), wk =   0.0078125
        k(   14) = (   0.0000000  -0.5000000   0.0242250), wk =   0.0156250
        k(   15) = (   0.0000000  -0.5000000  -0.0484499), wk =   0.0078125
        k(   16) = (   0.1250000   0.1250000   0.0000000), wk =   0.0156250
        k(   17) = (   0.1250000   0.1250000   0.0242250), wk =   0.0312500
        k(   18) = (   0.1250000   0.1250000  -0.0484499), wk =   0.0156250
        k(   19) = (   0.1250000   0.2500000   0.0000000), wk =   0.0312500
        k(   20) = (   0.1250000   0.2500000   0.0242250), wk =   0.0625000
        k(   21) = (   0.1250000   0.2500000  -0.0484499), wk =   0.0312500
        k(   22) = (   0.1250000   0.3750000   0.0000000), wk =   0.0312500
        k(   23) = (   0.1250000   0.3750000   0.0242250), wk =   0.0625000
        k(   24) = (   0.1250000   0.3750000  -0.0484499), wk =   0.0312500
        k(   25) = (   0.1250000  -0.5000000   0.0000000), wk =   0.0156250
        k(   26) = (   0.1250000  -0.5000000   0.0242250), wk =   0.0312500
        k(   27) = (   0.1250000  -0.5000000  -0.0484499), wk =   0.0156250
        k(   28) = (   0.2500000   0.2500000   0.0000000), wk =   0.0156250
        k(   29) = (   0.2500000   0.2500000   0.0242250), wk =   0.0312500
        k(   30) = (   0.2500000   0.2500000  -0.0484499), wk =   0.0156250
        k(   31) = (   0.2500000   0.3750000   0.0000000), wk =   0.0312500
        k(   32) = (   0.2500000   0.3750000   0.0242250), wk =   0.0625000
        k(   33) = (   0.2500000   0.3750000  -0.0484499), wk =   0.0312500
        k(   34) = (   0.2500000  -0.5000000   0.0000000), wk =   0.0156250
        k(   35) = (   0.2500000  -0.5000000   0.0242250), wk =   0.0312500
        k(   36) = (   0.2500000  -0.5000000  -0.0484499), wk =   0.0156250
        k(   37) = (   0.3750000   0.3750000   0.0000000), wk =   0.0156250
        k(   38) = (   0.3750000   0.3750000   0.0242250), wk =   0.0312500
        k(   39) = (   0.3750000   0.3750000  -0.0484499), wk =   0.0156250
        k(   40) = (   0.3750000  -0.5000000   0.0000000), wk =   0.0156250
        k(   41) = (   0.3750000  -0.5000000   0.0242250), wk =   0.0312500
        k(   42) = (   0.3750000  -0.5000000  -0.0484499), wk =   0.0156250
        k(   43) = (  -0.5000000  -0.5000000   0.0000000), wk =   0.0039062
        k(   44) = (  -0.5000000  -0.5000000   0.0242250), wk =   0.0078125
        k(   45) = (  -0.5000000  -0.5000000  -0.0484499), wk =   0.0039062

     Check: negative/imaginary core charge=   -0.000006    0.000000

     Initial potential from superposition of free atoms

     starting charge  295.99426, renormalised to  296.00000
     Number of +U iterations with fixed ns =  0
     Starting occupations:
 --- enter write_ns ---
 LDA+U parameters:
U(  1) =   3.1200   J(  1) =   0.7000   B(  1) =   0.0803
U(  2) =   3.1200   J(  2) =   0.7000   B(  2) =   0.0803
atom    1   Tr[ns(na)] (up, down, total) =   5.00000  0.00000  5.00000
   spin  1
    eigenvalues:
  1.000  1.000  1.000  1.000  1.000
    eigenvectors:
  1.000  0.000  0.000  0.000  0.000
  0.000  1.000  0.000  0.000  0.000
  0.000  0.000  1.000  0.000  0.000
  0.000  0.000  0.000  1.000  0.000
  0.000  0.000  0.000  0.000  1.000
    occupations:
  1.000  0.000  0.000  0.000  0.000
  0.000  1.000  0.000  0.000  0.000
  0.000  0.000  1.000  0.000  0.000
  0.000  0.000  0.000  1.000  0.000
  0.000  0.000  0.000  0.000  1.000
   spin  2
    eigenvalues:
  0.000  0.000  0.000  0.000  0.000
    eigenvectors:
  1.000  0.000  0.000  0.000  0.000
  0.000  1.000  0.000  0.000  0.000
  0.000  0.000  1.000  0.000  0.000
  0.000  0.000  0.000  1.000  0.000
  0.000  0.000  0.000  0.000  1.000
    occupations:
  0.000  0.000  0.000  0.000  0.000
  0.000  0.000  0.000  0.000  0.000
[...]
    occupations:
  0.075 -0.000 -0.000  0.000  0.000
 -0.000  0.081 -0.000  0.000  0.000
 -0.000 -0.000  0.081  0.000  0.000
  0.000  0.000  0.000  0.054 -0.000
  0.000  0.000  0.000 -0.000  0.125
   spin  2
    eigenvalues:
  1.003  1.003  1.003  1.004  1.004
    eigenvectors:
  0.000  0.000  0.000  1.000  0.000
  0.000  0.397  0.603  0.000  0.000
  0.000  0.603  0.397  0.000  0.000
  0.000  0.000  0.000  0.000  1.000
  1.000  0.000  0.000  0.000  0.000
    occupations:
  1.004 -0.000 -0.000  0.000  0.000
 -0.000  1.003 -0.000  0.000  0.000
 -0.000 -0.000  1.003  0.000  0.000
  0.000  0.000  0.000  1.004 -0.000
  0.000  0.000  0.000 -0.000  1.003
atomic mag. moment =    -4.601987
N of occupied +U levels =   43.394874
 --- exit write_ns ---

     total energy              =  -14687.27698634 Ry
     Harris-Foulkes estimate   =  -14685.81668129 Ry
     estimated scf accuracy    <      11.55171772 Ry

     total magnetization       =    20.25 Bohr mag/cell
     absolute magnetization    =    41.56 Bohr mag/cell

     iteration #  2     ecut=    45.00 Ry     beta= 0.10
     Davidson diagonalization with overlap
     ethr =  3.90E-03,  avg # of iterations =  1.0

[...]

     iteration # 13     ecut=    45.00 Ry     beta= 0.10
     Davidson diagonalization with overlap
     c_bands:  1 eigenvalues not converged
     c_bands:  2 eigenvalues not converged
     c_bands:  1 eigenvalues not converged
     ethr =  4.06E-06,  avg # of iterations =  3.7

[...]

     total energy              =  -14694.00544036 Ry
     Harris-Foulkes estimate   =  -14694.00544004 Ry
     estimated scf accuracy    <       0.00001087 Ry

[...]

     iteration # 38     ecut=    45.00 Ry     beta= 0.10
     Davidson diagonalization with overlap
     ethr =  3.16E-09,  avg # of iterations =  1.0

     Magnetic moment per site:
     atom:    1    charge:   13.5460    magn:    4.2484    constr:    0.0000
     atom:    2    charge:   13.5517    magn:    4.2061    constr:    0.0000
     atom:    3    charge:   13.5459    magn:    4.2487    constr:    0.0000
     atom:    4    charge:   13.5464    magn:   -4.2429    constr:    0.0000
     atom:    5    charge:   13.5461    magn:    4.2486    constr:    0.0000
     atom:    6    charge:   13.5518    magn:    4.2060    constr:    0.0000
     atom:    7    charge:   13.5461    magn:    4.2483    constr:    0.0000
     atom:    8    charge:   13.5463    magn:   -4.2439    constr:    0.0000
     atom:    9    charge:    9.1221    magn:    0.0332    constr:    0.0000
     atom:   10    charge:    9.1225    magn:    0.0372    constr:    0.0000
     atom:   11    charge:    9.1225    magn:    0.0373    constr:    0.0000
     atom:   12    charge:    9.1221    magn:    0.0333    constr:    0.0000
     atom:   13    charge:    9.1235    magn:    0.0430    constr:    0.0000
     atom:   14    charge:    9.1246    magn:   -0.0379    constr:    0.0000
     atom:   15    charge:    9.1247    magn:   -0.0379    constr:    0.0000
     atom:   16    charge:    9.1235    magn:    0.0430    constr:    0.0000
     atom:   17    charge:    9.1221    magn:    0.0332    constr:    0.0000
     atom:   18    charge:    9.1225    magn:    0.0372    constr:    0.0000
     atom:   19    charge:    9.1225    magn:    0.0372    constr:    0.0000
     atom:   20    charge:    9.1221    magn:    0.0331    constr:    0.0000
     atom:   21    charge:    9.1236    magn:    0.0426    constr:    0.0000
     atom:   22    charge:    9.1247    magn:   -0.0383    constr:    0.0000
     atom:   23    charge:    9.1247    magn:   -0.0383    constr:    0.0000
     atom:   24    charge:    9.1236    magn:    0.0427    constr:    0.0000

     End of self-consistent calculation
 --- enter write_ns ---
 LDA+U parameters:
U(  1) =   3.1200   J(  1) =   0.7000   B(  1) =   0.0803
U(  2) =   3.1200   J(  2) =   0.7000   B(  2) =   0.0803
atom    1   Tr[ns(na)] (up, down, total) =   4.97351  0.72562  5.69913
   spin  1
    eigenvalues:
  0.985  0.994  0.994  0.998  1.002
    eigenvectors:
  0.000  0.000  0.000  1.000  0.000
  0.000  0.357  0.643  0.000  0.000
  0.000  0.643  0.357  0.000  0.000
  0.000  0.000  0.000  0.000  1.000
  1.000  0.000  0.000  0.000  0.000
    occupations:
  0.998 -0.000 -0.000  0.000  0.000
 -0.000  0.994 -0.000  0.000  0.000
 -0.000 -0.000  0.994  0.000  0.000
  0.000  0.000  0.000  1.002 -0.000
  0.000  0.000  0.000 -0.000  0.985
   spin  2
    eigenvalues:
  0.066  0.121  0.146  0.146  0.247
    eigenvectors:
  0.000  1.000  0.000  0.000  0.000
  0.000  0.000  0.343  0.657  0.000
  0.000  0.000  0.657  0.343  0.000
  1.000  0.000  0.000  0.000  0.000
  0.000  0.000  0.000  0.000  1.000
    occupations:
  0.121 -0.000 -0.000  0.000  0.000
 -0.000  0.146 -0.000  0.000  0.000
 -0.000 -0.000  0.146  0.000  0.000
  0.000  0.000  0.000  0.066 -0.000
  0.000  0.000  0.000 -0.000  0.247
atomic mag. moment =     4.247886
atom    2   Tr[ns(na)] (up, down, total) =   4.97020  0.75935  5.72956
   spin  1
    eigenvalues:
  0.985  0.993  0.993  0.996  1.002
    eigenvectors:
  0.000  0.000  0.000  1.000  0.000
  0.000  0.290  0.710  0.000  0.000
  0.000  0.710  0.290  0.000  0.000
  0.000  0.000  0.000  0.000  1.000
  1.000  0.000  0.000  0.000  0.000
    occupations:
  0.996 -0.000 -0.000  0.000  0.000
 -0.000  0.993 -0.000  0.000  0.000
 -0.000 -0.000  0.993  0.000  0.000
  0.000  0.000  0.000  1.002 -0.000
  0.000  0.000  0.000 -0.000  0.985
   spin  2
    eigenvalues:
  0.065  0.138  0.144  0.144  0.269
    eigenvectors:
  0.000  1.000  0.000  0.000  0.000
  0.000  0.000  0.269  0.731  0.000
  0.000  0.000  0.731  0.269  0.000
  1.000  0.000  0.000  0.000  0.000
  0.000  0.000  0.000  0.000  1.000
    occupations:
  0.138 -0.000 -0.000  0.000  0.000
 -0.000  0.144 -0.000  0.000  0.000
 -0.000 -0.000  0.144  0.000  0.000
  0.000  0.000  0.000  0.065 -0.000
  0.000  0.000  0.000 -0.000  0.269
atomic mag. moment =     4.210848
atom    3   Tr[ns(na)] (up, down, total) =   4.97352  0.72538  5.69890
   spin  1
    eigenvalues:
  0.985  0.994  0.994  0.998  1.002
    eigenvectors:
  0.000  0.000  0.000  1.000  0.000
  0.000  0.286  0.714  0.000  0.000
  0.000  0.714  0.286  0.000  0.000
  0.000  0.000  0.000  0.000  1.000
  1.000  0.000  0.000  0.000  0.000
    occupations:
  0.998 -0.000 -0.000  0.000  0.000
 -0.000  0.994 -0.000  0.000  0.000
 -0.000 -0.000  0.994  0.000  0.000
  0.000  0.000  0.000  1.002 -0.000
  0.000  0.000  0.000 -0.000  0.985
   spin  2
    eigenvalues:
  0.066  0.121  0.146  0.146  0.247
    eigenvectors:
  0.000  1.000  0.000  0.000  0.000
  0.000  0.000  0.300  0.700  0.000
  0.000  0.000  0.700  0.300  0.000
  1.000  0.000  0.000  0.000  0.000
  0.000  0.000  0.000  0.000  1.000
    occupations:
  0.121 -0.000 -0.000  0.000  0.000
 -0.000  0.146 -0.000  0.000  0.000
 -0.000 -0.000  0.146  0.000  0.000
  0.000  0.000  0.000  0.066 -0.000
  0.000  0.000  0.000 -0.000  0.247
atomic mag. moment =     4.248143
atom    4   Tr[ns(na)] (up, down, total) =   0.73190  4.97024  5.70214
   spin  1
    eigenvalues:
  0.065  0.133  0.141  0.141  0.252
    eigenvectors:
  0.000  1.000  0.000  0.000  0.000
  0.000  0.000  0.381  0.619  0.000
  0.000  0.000  0.619  0.381  0.000
  1.000  0.000  0.000  0.000  0.000
  0.000  0.000  0.000  0.000  1.000
    occupations:
  0.133 -0.000 -0.000  0.000  0.000
 -0.000  0.141 -0.000  0.000  0.000
 -0.000 -0.000  0.141  0.000  0.000
  0.000  0.000  0.000  0.065 -0.000
  0.000  0.000  0.000 -0.000  0.252
   spin  2
    eigenvalues:
  0.985  0.994  0.994  0.996  1.003
    eigenvectors:
  0.000  0.000  0.000  1.000  0.000
  0.000  0.315  0.685  0.000  0.000
  0.000  0.685  0.315  0.000  0.000
  0.000  0.000  0.000  0.000  1.000
  1.000  0.000  0.000  0.000  0.000
    occupations:
  0.996 -0.000 -0.000  0.000  0.000
 -0.000  0.994 -0.000  0.000  0.000
 -0.000 -0.000  0.994  0.000  0.000
  0.000  0.000  0.000  1.003 -0.000
  0.000  0.000  0.000 -0.000  0.985
atomic mag. moment =    -4.238335
atom    5   Tr[ns(na)] (up, down, total) =   4.97352  0.72556  5.69908
   spin  1
    eigenvalues:
  0.985  0.994  0.994  0.998  1.002
    eigenvectors:
  0.000  0.000  0.000  1.000  0.000
  0.000  0.389  0.611  0.000  0.000
  0.000  0.611  0.389  0.000  0.000
  0.000  0.000  0.000  0.000  1.000
  1.000  0.000  0.000  0.000  0.000
    occupations:
  0.998 -0.000 -0.000  0.000  0.000
 -0.000  0.994 -0.000  0.000  0.000
 -0.000 -0.000  0.994  0.000  0.000
  0.000  0.000  0.000  1.002 -0.000
  0.000  0.000  0.000 -0.000  0.985
   spin  2
    eigenvalues:
  0.066  0.121  0.146  0.146  0.247
    eigenvectors:
  0.000  1.000  0.000  0.000  0.000
  0.000  0.000  0.296  0.704  0.000
  0.000  0.000  0.704  0.296  0.000
  1.000  0.000  0.000  0.000  0.000
  0.000  0.000  0.000  0.000  1.000
    occupations:
  0.121 -0.000 -0.000  0.000  0.000
 -0.000  0.146 -0.000  0.000  0.000
 -0.000 -0.000  0.146  0.000  0.000
  0.000  0.000  0.000  0.066 -0.000
  0.000  0.000  0.000 -0.000  0.247
atomic mag. moment =     4.247959
atom    6   Tr[ns(na)] (up, down, total) =   4.97020  0.75945  5.72965
   spin  1
    eigenvalues:
  0.985  0.993  0.993  0.996  1.002
    eigenvectors:
  0.000  0.000  0.000  1.000  0.000
  0.000  0.211  0.789  0.000  0.000
  0.000  0.789  0.211  0.000  0.000
  0.000  0.000  0.000  0.000  1.000
  1.000  0.000  0.000  0.000  0.000
    occupations:
  0.996 -0.000 -0.000  0.000  0.000
 -0.000  0.993 -0.000  0.000  0.000
 -0.000 -0.000  0.993  0.000  0.000
  0.000  0.000  0.000  1.002 -0.000
  0.000  0.000  0.000 -0.000  0.985
   spin  2
    eigenvalues:
  0.065  0.138  0.144  0.144  0.269
    eigenvectors:
  0.000  1.000  0.000  0.000  0.000
  0.000  0.000  0.320  0.680  0.000
  0.000  0.000  0.680  0.320  0.000
  1.000  0.000  0.000  0.000  0.000
  0.000  0.000  0.000  0.000  1.000
    occupations:
  0.138 -0.000 -0.000  0.000  0.000
 -0.000  0.144 -0.000  0.000  0.000
 -0.000 -0.000  0.144  0.000  0.000
  0.000  0.000  0.000  0.065 -0.000
  0.000  0.000  0.000 -0.000  0.269
atomic mag. moment =     4.210746
atom    7   Tr[ns(na)] (up, down, total) =   4.97350  0.72574  5.69924
   spin  1
    eigenvalues:
  0.985  0.994  0.994  0.998  1.002
    eigenvectors:
  0.000  0.000  0.000  1.000  0.000
  0.000  0.347  0.653  0.000  0.000
  0.000  0.653  0.347  0.000  0.000
  0.000  0.000  0.000  0.000  1.000
  1.000  0.000  0.000  0.000  0.000
    occupations:
  0.998 -0.000 -0.000  0.000  0.000
 -0.000  0.994 -0.000  0.000  0.000
 -0.000 -0.000  0.994  0.000  0.000
  0.000  0.000  0.000  1.002 -0.000
  0.000  0.000  0.000 -0.000  0.985
   spin  2
    eigenvalues:
  0.066  0.121  0.146  0.146  0.247
    eigenvectors:
  0.000  1.000  0.000  0.000  0.000
  0.000  0.000  0.339  0.661  0.000
  0.000  0.000  0.661  0.339  0.000
  1.000  0.000  0.000  0.000  0.000
  0.000  0.000  0.000  0.000  1.000
    occupations:
  0.121 -0.000 -0.000  0.000  0.000
 -0.000  0.146 -0.000  0.000  0.000
 -0.000 -0.000  0.146  0.000  0.000
  0.000  0.000  0.000  0.066 -0.000
  0.000  0.000  0.000 -0.000  0.247
atomic mag. moment =     4.247764
atom    8   Tr[ns(na)] (up, down, total) =   0.73132  4.97035  5.70167
   spin  1
    eigenvalues:
  0.065  0.132  0.141  0.141  0.252
    eigenvectors:
  0.000  1.000  0.000  0.000  0.000
  0.000  0.000  0.358  0.642  0.000
  0.000  0.000  0.642  0.358  0.000
  1.000  0.000  0.000  0.000  0.000
  0.000  0.000  0.000  0.000  1.000
    occupations:
  0.132 -0.000 -0.000  0.000  0.000
 -0.000  0.141 -0.000  0.000  0.000
 -0.000 -0.000  0.141  0.000  0.000
  0.000  0.000  0.000  0.065 -0.000
  0.000  0.000  0.000 -0.000  0.252
   spin  2
    eigenvalues:
  0.985  0.994  0.994  0.996  1.003
    eigenvectors:
  0.000  0.000  0.000  1.000  0.000
  0.000  0.338  0.662  0.000  0.000
  0.000  0.662  0.338  0.000  0.000
  0.000  0.000  0.000  0.000  1.000
  1.000  0.000  0.000  0.000  0.000
    occupations:
  0.996 -0.000 -0.000  0.000  0.000
 -0.000  0.994 -0.000  0.000  0.000
 -0.000 -0.000  0.994  0.000  0.000
  0.000  0.000  0.000  1.003 -0.000
  0.000  0.000  0.000 -0.000  0.985
atomic mag. moment =    -4.239029
N of occupied +U levels =   45.659361
 --- exit write_ns ---

 ------ SPIN UP ------------

          k = 0.0000 0.0000 0.0000 ( 13925 PWs)   bands (ev):

   -66.7573 -66.7572 -66.7569 -66.7567 -66.6199 -66.6199 -62.2208 -62.2200
   -35.5250 -35.5250 -35.5246 -35.5244 -35.4750 -35.4750 -35.4749 -35.4749
   -35.4746 -35.4746 -35.4744 -35.4744 -35.4016 -35.4015 -35.3328 -35.3328
   -35.3328 -35.3328 -31.0459 -31.0453 -31.0376 -31.0376 -31.0368 -31.0368
     5.7412   5.8775   5.9072   6.2779   6.3909   6.9562   7.0631   7.6126
     8.2145   8.3781   8.3852   8.3957   8.4247   8.5249   8.5438   8.5547
     8.7003   8.7632   8.8371   8.8905   8.8923   8.8969   9.1265   9.2684
     9.3008   9.3756   9.3960   9.4413   9.5365   9.6483   9.6877   9.7972
     9.8985   9.9071  10.0008  10.0230  10.0967  10.1228  10.1228  10.1314
    10.1539  10.1539  10.1599  10.2014  10.2014  10.2628  10.3024  10.3115
    10.3298  10.3298  10.3489  10.3489  10.5797  10.5797  10.5803  10.5803
    10.5888  10.5888  10.5905  10.6135  10.6135  10.6304  10.6304  10.6440
    10.6440  10.6634  10.6813  10.7473  10.7473  10.7860  10.7860  10.8284
    10.9246  11.0103  11.0103  11.0240  11.0403  11.0403  11.1408  11.2206
    11.2377  11.2512  11.3331  11.4056  11.4056  11.4369  11.4415  11.4728
    11.6043  11.6043  11.6300  11.6950  11.7728  11.8655  11.8739  11.8933
    11.8933  11.9033  11.9368  11.9691  12.1577  12.1577  12.1595  12.1857
    12.1922  12.2393  12.3313  12.3313  12.5682  12.6181  12.6664  12.6664
    12.7152  12.7152  12.8159  12.8372  12.8619  13.0157  13.0748  13.0795
    13.3102  13.7911  14.2831  15.0038  15.6375  16.3400  16.9023  16.9023
    16.9049  16.9049  16.9398  16.9404  17.0980  17.0985  17.5278  17.5595
    18.1944  19.3311  19.6341  20.0360  20.0360  20.3767  20.3767  20.4368
    20.4368  21.3326

[...]

          k =-0.5000-0.5000 0.0000 ( 13964 PWs)   bands (ev):

[...]

 ------ SPIN DOWN ----------

[...]

          k = 0.3750-0.5000-0.0484 ( 13940 PWs)   bands (ev):

[...]

          k =-0.5000-0.5000-0.0484 ( 13992 PWs)   bands (ev):

   -66.8128 -66.8113 -62.1524 -62.1522 -62.1520 -62.1519 -62.0537 -62.0536
   -35.5802 -35.5790 -35.5411 -35.5411 -35.5395 -35.5395 -30.9876 -30.9876
   -30.9874 -30.9874 -30.9872 -30.9872 -30.9871 -30.9871 -30.9732 -30.9730
   -30.9728 -30.9727 -30.8862 -30.8862 -30.8848 -30.8848 -30.8847 -30.8847
     8.2012   8.2016   8.2427   8.2428   8.6679   8.6680   8.6704   8.6704
     9.0185   9.0185   9.0696   9.0697   9.2661   9.2661   9.2662   9.2662
     9.3588   9.3588   9.3805   9.3806   9.3846   9.3846   9.3846   9.3846
     9.5743   9.5743   9.5744   9.5744   9.8767   9.8767   9.8768   9.8768
     9.9325   9.9325   9.9330   9.9330   9.9459   9.9464  10.2886  10.2886
    10.2886  10.2886  10.5511  10.5511  10.6742  10.6743  10.6842  10.6842
    10.7980  10.7980  10.7981  10.7981  11.1638  11.1641  11.2822  11.2834
    11.3559  11.3559  11.3560  11.3560  11.3995  11.4009  11.9266  11.9267
    11.9766  11.9769  11.9778  11.9780  11.9781  11.9781  11.9781  11.9781
    12.0165  12.0166  12.0391  12.0391  12.0837  12.0837  12.0840  12.0841
    12.1313  12.1313  12.1549  12.1551  12.2187  12.2188  12.2746  12.2747
    12.3271  12.3271  13.3981  13.3982  13.4183  13.4184  13.4401  13.4402
    13.9648  13.9648  13.9649  13.9649  14.3809  14.3809  14.3810  14.3810
    14.7474  14.7474  14.7476  14.7476  15.9188  15.9188  15.9188  15.9188
    16.6192  16.6195  16.8126  16.8127  16.9014  16.9015  17.1250  17.1251
    17.2563  17.2563  17.2565  17.2565  17.7968  17.7969  17.9056  17.9056
    17.9057  17.9057  17.9247  17.9248  18.0948  18.0950  18.0951  18.0951
    18.1965  18.1966  18.2157  18.2158  18.5313  18.5313  18.7747  18.7747
    18.9031  18.9031

     the Fermi energy is    15.2816 ev

!    total energy              =  -14694.00544134 Ry
     Harris-Foulkes estimate   =  -14694.00544044 Ry
     estimated scf accuracy    <       0.00000090 Ry

     total all-electron energy =   -626921.601163 Ry

     The total energy is the sum of the following terms:

     one-electron contribution =    -714.47286170 Ry
     hartree contribution      =     656.53250142 Ry
     xc contribution           =    -737.88157574 Ry
     ewald contribution        =   -2196.78933708 Ry
     Hubbard energy            =       0.44928561 Ry
     one-center paw contrib.   =  -11701.84345385 Ry

     total magnetization       =    17.48 Bohr mag/cell
     absolute magnetization    =    37.26 Bohr mag/cell

     convergence has been achieved in  38 iterations

     Writing output data file mnau2.save/

     General routines

     Parallel routines

     Hubbard U routines

       8h

   This run was terminated on:  12:47:31   8Apr2019

   JOB DONE.