     Program PWSCF v.6.3MaX starts on  8Apr2019 at 12:47:35

     R & G space division:  proc/nbgrp/npool/nimage =      32
     Waiting for input...
     Reading input from standard input

     Current dimensions of program PWSCF are:
     Max number of different atomic species (ntypx) = 10
     Max number of k-points (npk) =  40000
     Max angular momentum in pseudopotentials (lmaxx) =  3
               file Mn.pbe-spn-kjpaw_psl.0.3.1.UPF: wavefunction(s)  3P 3D renormalized
               file Mn.pbe-spn-kjpaw_psl.0.3.1.UPF: wavefunction(s)  3P 3D renormalized
               file Au.pbe-dn-kjpaw_psl.0.1.UPF: wavefunction(s)  6S 6P 5D renormalized

     bravais-lattice index     =            0
     lattice parameter (alat)  =       6.4153  a.u.
     unit-cell volume          =    2724.7774 (a.u.)^3
     number of atoms/cell      =           24
     number of atomic types    =            3
     number of electrons       =       296.00
     number of Kohn-Sham states=          178
     kinetic-energy cutoff     =      45.0000  Ry
     charge density cutoff     =     400.0000  Ry
     convergence threshold     =      1.0E-06
     mixing beta               =       0.1000
     number of iterations used =            8  plain     mixing
     Exchange-correlation      = SLA PW PBX PBC ( 1  4  3  4 0 0)

     celldm(1)=   6.415315  celldm(2)=   0.000000  celldm(3)=   0.000000
     celldm(4)=   0.000000  celldm(5)=   0.000000  celldm(6)=   0.000000

     crystal axes: (cart. coord. in units of alat)
               a(1) = (   1.000000   0.000000   0.000000 )
               a(2) = (   0.000000   1.000000   0.000000 )
               a(3) = (   0.000000   0.000000  10.319937 )

     reciprocal axes: (cart. coord. in units 2 pi/alat)
               b(1) = (  1.000000  0.000000  0.000000 )
               b(2) = (  0.000000  1.000000  0.000000 )
               b(3) = (  0.000000  0.000000  0.096900 )

     PseudoPot. # 1 for Mn read from file:
     ./pseudo/Mn.pbe-spn-kjpaw_psl.0.3.1.UPF
     MD5 check sum: 7b43a3fb0e93e198b8dd8488d8cf503e
     Pseudo is Projector augmented-wave + core cor, Zval = 15.0
     Generated using "atomic" code by A. Dal Corso v.5.0.99 svn rev. 10869
     Shape of augmentation charge: PSQ
     Using radial grid of 1187 points,  6 beta functions with:
                l(1) =   0
                l(2) =   0
                l(3) =   1
                l(4) =   1
                l(5) =   2
                l(6) =   2
     Q(r) pseudized with 0 coefficients

     PseudoPot. # 2 for Mn read from file:
     ./pseudo/Mn.pbe-spn-kjpaw_psl.0.3.1.UPF
     MD5 check sum: 7b43a3fb0e93e198b8dd8488d8cf503e
     Pseudo is Projector augmented-wave + core cor, Zval = 15.0
     Generated using "atomic" code by A. Dal Corso v.5.0.99 svn rev. 10869
     Shape of augmentation charge: PSQ
     Using radial grid of 1187 points,  6 beta functions with:
                l(1) =   0
                l(2) =   0
                l(3) =   1
                l(4) =   1
                l(5) =   2
                l(6) =   2
     Q(r) pseudized with 0 coefficients

     PseudoPot. # 3 for Au read from file:
     ./pseudo/Au.pbe-dn-kjpaw_psl.0.1.UPF
     MD5 check sum: be11e2e8e535ebe2b3ccfb4f88f554cb
     Pseudo is Projector augmented-wave + core cor, Zval = 11.0
     Generated using "atomic" code by A. Dal Corso v.5.0.2 svn rev. 9415
     Shape of augmentation charge: PSQ
     Using radial grid of 1279 points,  6 beta functions with:
                l(1) =   0
                l(2) =   0
                l(3) =   1
                l(4) =   1
                l(5) =   2
                l(6) =   2
     Q(r) pseudized with 0 coefficients

     atomic species   valence    mass     pseudopotential
        Mn1           15.00    54.93800     Mn( 1.00)
        Mn2           15.00    54.93800     Mn( 1.00)
        Au            11.00   196.96600     Au( 1.00)

     Starting magnetic structure
     atomic species   magnetization
        Mn1          0.800
        Mn2         -0.800
        Au           0.000

     Full LDA+U calculation (l_max = 2) with parameters (eV):
     U(  1) =   3.1200   J(  1) =   0.7000   B(  1) =   0.0803
     U(  2) =   3.1200   J(  2) =   0.7000   B(  2) =   0.0803

      8 Sym. Ops. (no inversion) found

   Cartesian axes

     site n.     atom                  positions (alat units)
         1           Mn1 tau(   1) = (   0.0000000   0.0000000   0.0000000  )
         2           Mn1 tau(   2) = (   0.5000000   0.5000000   1.2899921  )
         3           Mn1 tau(   3) = (   0.0000000   0.0000000   2.5799843  )
         4           Mn2 tau(   4) = (   0.5000000   0.5000000   3.8699764  )
         5           Mn1 tau(   5) = (   0.0000000   0.0000000   5.1599686  )
         6           Mn1 tau(   6) = (   0.5000000   0.5000000   6.4499607  )
         7           Mn2 tau(   7) = (   0.0000000   0.0000000   7.7399528  )
         8           Mn2 tau(   8) = (   0.5000000   0.5000000   9.0299450  )
         9           Au  tau(   9) = (   0.5000000   0.5000000   0.4127975  )
        10           Au  tau(  10) = (   0.0000000   0.0000000   0.8771947  )
        11           Au  tau(  11) = (   0.0000000   0.0000000   1.7027896  )
        12           Au  tau(  12) = (   0.5000000   0.5000000   2.1671868  )
        13           Au  tau(  13) = (   0.5000000   0.5000000   2.9927818  )
        14           Au  tau(  14) = (   0.0000000   0.0000000   3.4571789  )
        15           Au  tau(  15) = (   0.0000000   0.0000000   4.2827739  )
        16           Au  tau(  16) = (   0.5000000   0.5000000   4.7471711  )
        17           Au  tau(  17) = (   0.5000000   0.5000000   5.5727660  )
        18           Au  tau(  18) = (   0.0000000   0.0000000   6.0371632  )
        19           Au  tau(  19) = (   0.0000000   0.0000000   6.8627582  )
        20           Au  tau(  20) = (   0.5000000   0.5000000   7.3271553  )
        21           Au  tau(  21) = (   0.5000000   0.5000000   8.1527503  )
        22           Au  tau(  22) = (   0.0000000   0.0000000   8.6171475  )
        23           Au  tau(  23) = (   0.0000000   0.0000000   9.4427424  )
        24           Au  tau(  24) = (   0.5000000   0.5000000   9.9071396  )

     number of k points=    45 (tetrahedron method)
                       cart. coord. in units 2pi/alat
        k(    1) = (   0.0000000   0.0000000   0.0000000), wk =   0.0039062
        k(    2) = (   0.0000000   0.0000000   0.0242250), wk =   0.0078125
        k(    3) = (   0.0000000   0.0000000  -0.0484499), wk =   0.0039062
        k(    4) = (   0.0000000   0.1250000   0.0000000), wk =   0.0156250
        k(    5) = (   0.0000000   0.1250000   0.0242250), wk =   0.0312500
        k(    6) = (   0.0000000   0.1250000  -0.0484499), wk =   0.0156250
        k(    7) = (   0.0000000   0.2500000   0.0000000), wk =   0.0156250
        k(    8) = (   0.0000000   0.2500000   0.0242250), wk =   0.0312500
        k(    9) = (   0.0000000   0.2500000  -0.0484499), wk =   0.0156250
        k(   10) = (   0.0000000   0.3750000   0.0000000), wk =   0.0156250
        k(   11) = (   0.0000000   0.3750000   0.0242250), wk =   0.0312500
        k(   12) = (   0.0000000   0.3750000  -0.0484499), wk =   0.0156250
        k(   13) = (   0.0000000  -0.5000000   0.0000000), wk =   0.0078125
        k(   14) = (   0.0000000  -0.5000000   0.0242250), wk =   0.0156250
        k(   15) = (   0.0000000  -0.5000000  -0.0484499), wk =   0.0078125
        k(   16) = (   0.1250000   0.1250000   0.0000000), wk =   0.0156250
        k(   17) = (   0.1250000   0.1250000   0.0242250), wk =   0.0312500
        k(   18) = (   0.1250000   0.1250000  -0.0484499), wk =   0.0156250
        k(   19) = (   0.1250000   0.2500000   0.0000000), wk =   0.0312500
        k(   20) = (   0.1250000   0.2500000   0.0242250), wk =   0.0625000
        k(   21) = (   0.1250000   0.2500000  -0.0484499), wk =   0.0312500
        k(   22) = (   0.1250000   0.3750000   0.0000000), wk =   0.0312500
        k(   23) = (   0.1250000   0.3750000   0.0242250), wk =   0.0625000
        k(   24) = (   0.1250000   0.3750000  -0.0484499), wk =   0.0312500
        k(   25) = (   0.1250000  -0.5000000   0.0000000), wk =   0.0156250
        k(   26) = (   0.1250000  -0.5000000   0.0242250), wk =   0.0312500
        k(   27) = (   0.1250000  -0.5000000  -0.0484499), wk =   0.0156250
        k(   28) = (   0.2500000   0.2500000   0.0000000), wk =   0.0156250
        k(   29) = (   0.2500000   0.2500000   0.0242250), wk =   0.0312500
        k(   30) = (   0.2500000   0.2500000  -0.0484499), wk =   0.0156250
        k(   31) = (   0.2500000   0.3750000   0.0000000), wk =   0.0312500
        k(   32) = (   0.2500000   0.3750000   0.0242250), wk =   0.0625000
        k(   33) = (   0.2500000   0.3750000  -0.0484499), wk =   0.0312500
        k(   34) = (   0.2500000  -0.5000000   0.0000000), wk =   0.0156250
        k(   35) = (   0.2500000  -0.5000000   0.0242250), wk =   0.0312500
        k(   36) = (   0.2500000  -0.5000000  -0.0484499), wk =   0.0156250
        k(   37) = (   0.3750000   0.3750000   0.0000000), wk =   0.0156250
        k(   38) = (   0.3750000   0.3750000   0.0242250), wk =   0.0312500
        k(   39) = (   0.3750000   0.3750000  -0.0484499), wk =   0.0156250
        k(   40) = (   0.3750000  -0.5000000   0.0000000), wk =   0.0156250
        k(   41) = (   0.3750000  -0.5000000   0.0242250), wk =   0.0312500
        k(   42) = (   0.3750000  -0.5000000  -0.0484499), wk =   0.0156250
        k(   43) = (  -0.5000000  -0.5000000   0.0000000), wk =   0.0039062
        k(   44) = (  -0.5000000  -0.5000000   0.0242250), wk =   0.0078125
        k(   45) = (  -0.5000000  -0.5000000  -0.0484499), wk =   0.0039062

     Check: negative/imaginary core charge=   -0.000006    0.000000

     Initial potential from superposition of free atoms

     starting charge  295.99426, renormalised to  296.00000
     Number of +U iterations with fixed ns =  0
     Starting occupations:
 --- enter write_ns ---
 LDA+U parameters:
U(  1) =   3.1200   J(  1) =   0.7000   B(  1) =   0.0803
U(  2) =   3.1200   J(  2) =   0.7000   B(  2) =   0.0803
atom    1   Tr[ns(na)] (up, down, total) =   5.00000  0.00000  5.00000
   spin  1
    eigenvalues:
  1.000  1.000  1.000  1.000  1.000
    eigenvectors:
  1.000  0.000  0.000  0.000  0.000
  0.000  1.000  0.000  0.000  0.000
  0.000  0.000  1.000  0.000  0.000
  0.000  0.000  0.000  1.000  0.000
  0.000  0.000  0.000  0.000  1.000
    occupations:
  1.000  0.000  0.000  0.000  0.000
  0.000  1.000  0.000  0.000  0.000
  0.000  0.000  1.000  0.000  0.000
  0.000  0.000  0.000  1.000  0.000
  0.000  0.000  0.000  0.000  1.000
   spin  2
    eigenvalues:
  0.000  0.000  0.000  0.000  0.000
    eigenvectors:
  1.000  0.000  0.000  0.000  0.000
  0.000  1.000  0.000  0.000  0.000
  0.000  0.000  1.000  0.000  0.000
  0.000  0.000  0.000  1.000  0.000
  0.000  0.000  0.000  0.000  1.000
    occupations:
  0.000  0.000  0.000  0.000  0.000
  0.000  0.000  0.000  0.000  0.000
  0.000  0.000  0.000  0.000  0.000
  0.000  0.000  0.000  0.000  0.000
  0.000  0.000  0.000  0.000  0.000
atomic mag. moment =     5.000000
[...]
  0.000  0.000  0.000 -0.000  0.121
   spin  2
    eigenvalues:
  1.003  1.003  1.003  1.004  1.004
    eigenvectors:
  0.000  0.000  0.000  1.000  0.000
  0.000  0.283  0.717  0.000  0.000
  0.000  0.717  0.283  0.000  0.000
  0.000  0.000  0.000  0.000  1.000
  1.000  0.000  0.000  0.000  0.000
    occupations:
  1.004 -0.000 -0.000  0.000  0.000
 -0.000  1.003 -0.000  0.000  0.000
 -0.000 -0.000  1.003  0.000  0.000
  0.000  0.000  0.000  1.004 -0.000
  0.000  0.000  0.000 -0.000  1.003
atomic mag. moment =    -4.605051
N of occupied +U levels =   43.417372
 --- exit write_ns ---

     total energy              =  -14687.27611319 Ry
     Harris-Foulkes estimate   =  -14685.81558586 Ry
     estimated scf accuracy    <      11.56389160 Ry

     total magnetization       =    10.10 Bohr mag/cell
     absolute magnetization    =    41.52 Bohr mag/cell

     iteration #  2     ecut=    45.00 Ry     beta= 0.10
     Davidson diagonalization with overlap
     ethr =  3.91E-03,  avg # of iterations =  1.0

[...]

     iteration # 13     ecut=    45.00 Ry     beta= 0.10
     Davidson diagonalization with overlap
     c_bands:  2 eigenvalues not converged
     c_bands:  2 eigenvalues not converged
     ethr =  2.84E-06,  avg # of iterations =  6.8

[...]

     iteration # 14     ecut=    45.00 Ry     beta= 0.10
     Davidson diagonalization with overlap
     c_bands:  2 eigenvalues not converged
     ethr =  1.71E-06,  avg # of iterations =  2.8

[...]

     total energy              =  -14694.00716008 Ry
     Harris-Foulkes estimate   =  -14694.00715912 Ry
     estimated scf accuracy    <       0.00000521 Ry

[...]

     iteration # 28     ecut=    45.00 Ry     beta= 0.10
     Davidson diagonalization with overlap
     ethr =  7.43E-10,  avg # of iterations =  2.2

     Magnetic moment per site:
     atom:    1    charge:   13.5498    magn:    4.2264    constr:    0.0000
     atom:    2    charge:   13.5520    magn:    4.2038    constr:    0.0000
     atom:    3    charge:   13.5457    magn:    4.2519    constr:    0.0000
     atom:    4    charge:   13.5468    magn:   -4.2355    constr:    0.0000
     atom:    5    charge:   13.5454    magn:    4.2511    constr:    0.0000
     atom:    6    charge:   13.5488    magn:    4.2301    constr:    0.0000
     atom:    7    charge:   13.5487    magn:   -4.2331    constr:    0.0000
     atom:    8    charge:   13.5484    magn:   -4.2353    constr:    0.0000
     atom:    9    charge:    9.1212    magn:    0.0313    constr:    0.0000
     atom:   10    charge:    9.1219    magn:    0.0356    constr:    0.0000
     atom:   11    charge:    9.1223    magn:    0.0378    constr:    0.0000
     atom:   12    charge:    9.1220    magn:    0.0329    constr:    0.0000
     atom:   13    charge:    9.1231    magn:    0.0446    constr:    0.0000
     atom:   14    charge:    9.1246    magn:   -0.0371    constr:    0.0000
     atom:   15    charge:    9.1235    magn:   -0.0376    constr:    0.0000
     atom:   16    charge:    9.1232    magn:    0.0508    constr:    0.0000
     atom:   17    charge:    9.1232    magn:    0.0392    constr:    0.0000
     atom:   18    charge:    9.1230    magn:    0.0394    constr:    0.0000
     atom:   19    charge:    9.1225    magn:    0.0431    constr:    0.0000
     atom:   20    charge:    9.1224    magn:   -0.0439    constr:    0.0000
     atom:   21    charge:    9.1230    magn:   -0.0386    constr:    0.0000
     atom:   22    charge:    9.1233    magn:   -0.0395    constr:    0.0000
     atom:   23    charge:    9.1239    magn:   -0.0446    constr:    0.0000
     atom:   24    charge:    9.1222    magn:    0.0370    constr:    0.0000

     End of self-consistent calculation
 --- enter write_ns ---
 LDA+U parameters:
U(  1) =   3.1200   J(  1) =   0.7000   B(  1) =   0.0803
U(  2) =   3.1200   J(  2) =   0.7000   B(  2) =   0.0803
atom    1   Tr[ns(na)] (up, down, total) =   4.97063  0.74467  5.71530
   spin  1
    eigenvalues:
  0.984  0.993  0.993  0.997  1.002
    eigenvectors:
  0.000  0.000  0.000  1.000  0.000
  0.000  0.319  0.681  0.000  0.000
  0.000  0.681  0.319  0.000  0.000
  0.000  0.000  0.000  0.000  1.000
  1.000  0.000  0.000  0.000  0.000
    occupations:
  0.997 -0.000 -0.000  0.000  0.000
 -0.000  0.993 -0.000  0.000  0.000
 -0.000 -0.000  0.993  0.000  0.000
  0.000  0.000  0.000  1.002 -0.000
  0.000  0.000  0.000 -0.000  0.984
   spin  2
    eigenvalues:
  0.065  0.132  0.146  0.146  0.256
    eigenvectors:
  0.000  1.000  0.000  0.000  0.000
  0.000  0.000  0.316  0.684  0.000
  0.000  0.000  0.684  0.316  0.000
  1.000  0.000  0.000  0.000  0.000
  0.000  0.000  0.000  0.000  1.000
    occupations:
  0.132 -0.000 -0.000  0.000  0.000
 -0.000  0.146 -0.000  0.000  0.000
 -0.000 -0.000  0.146  0.000  0.000
  0.000  0.000  0.000  0.065 -0.000
  0.000  0.000  0.000 -0.000  0.256
atomic mag. moment =     4.225961
atom    2   Tr[ns(na)] (up, down, total) =   4.96982  0.76122  5.73104
   spin  1
    eigenvalues:
  0.984  0.993  0.993  0.996  1.002
    eigenvectors:
  0.000  0.000  0.000  1.000  0.000
  0.000  0.411  0.589  0.000  0.000
  0.000  0.589  0.411  0.000  0.000
  0.000  0.000  0.000  0.000  1.000
  1.000  0.000  0.000  0.000  0.000
    occupations:
  0.996 -0.000 -0.000  0.000  0.000
 -0.000  0.993 -0.000  0.000  0.000
 -0.000 -0.000  0.993  0.000  0.000
  0.000  0.000  0.000  1.002 -0.000
  0.000  0.000  0.000 -0.000  0.984
   spin  2
    eigenvalues:
  0.065  0.141  0.143  0.143  0.269
    eigenvectors:
  0.000  1.000  0.000  0.000  0.000
  0.000  0.000  0.252  0.748  0.000
  0.000  0.000  0.748  0.252  0.000
  1.000  0.000  0.000  0.000  0.000
  0.000  0.000  0.000  0.000  1.000
    occupations:
  0.141 -0.000 -0.000  0.000  0.000
 -0.000  0.143 -0.000  0.000  0.000
 -0.000 -0.000  0.143  0.000  0.000
  0.000  0.000  0.000  0.065 -0.000
  0.000  0.000  0.000 -0.000  0.269
atomic mag. moment =     4.208604
atom    3   Tr[ns(na)] (up, down, total) =   4.97365  0.72347  5.69712
   spin  1
    eigenvalues:
  0.985  0.994  0.994  0.998  1.002
    eigenvectors:
  0.000  0.000  0.000  1.000  0.000
  0.000  0.341  0.659  0.000  0.000
  0.000  0.659  0.341  0.000  0.000
  0.000  0.000  0.000  0.000  1.000
  1.000  0.000  0.000  0.000  0.000
    occupations:
  0.998 -0.000 -0.000  0.000  0.000
 -0.000  0.994 -0.000  0.000  0.000
 -0.000 -0.000  0.994  0.000  0.000
  0.000  0.000  0.000  1.002 -0.000
  0.000  0.000  0.000 -0.000  0.985
   spin  2
    eigenvalues:
  0.066  0.117  0.147  0.147  0.246
    eigenvectors:
  0.000  1.000  0.000  0.000  0.000
  0.000  0.000  0.259  0.741  0.000
  0.000  0.000  0.741  0.259  0.000
  1.000  0.000  0.000  0.000  0.000
  0.000  0.000  0.000  0.000  1.000
    occupations:
  0.117 -0.000 -0.000  0.000  0.000
 -0.000  0.147 -0.000  0.000  0.000
 -0.000 -0.000  0.147  0.000  0.000
  0.000  0.000  0.000  0.066 -0.000
  0.000  0.000  0.000 -0.000  0.246
atomic mag. moment =     4.250173
atom    4   Tr[ns(na)] (up, down, total) =   0.73700  4.96929  5.70629
   spin  1
    eigenvalues:
  0.065  0.130  0.145  0.145  0.251
    eigenvectors:
  0.000  1.000  0.000  0.000  0.000
  0.000  0.000  0.355  0.645  0.000
  0.000  0.000  0.645  0.355  0.000
  1.000  0.000  0.000  0.000  0.000
  0.000  0.000  0.000  0.000  1.000
    occupations:
  0.130 -0.000 -0.000  0.000  0.000
 -0.000  0.145 -0.000  0.000  0.000
 -0.000 -0.000  0.145  0.000  0.000
  0.000  0.000  0.000  0.065 -0.000
  0.000  0.000  0.000 -0.000  0.251
   spin  2
    eigenvalues:
  0.984  0.994  0.994  0.995  1.003
    eigenvectors:
  0.000  0.000  0.000  1.000  0.000
  0.000  0.350  0.650  0.000  0.000
  0.000  0.650  0.350  0.000  0.000
  0.000  0.000  0.000  0.000  1.000
  1.000  0.000  0.000  0.000  0.000
    occupations:
  0.995 -0.000 -0.000  0.000  0.000
 -0.000  0.994 -0.000  0.000  0.000
 -0.000 -0.000  0.994  0.000  0.000
  0.000  0.000  0.000  1.003 -0.000
  0.000  0.000  0.000 -0.000  0.984
atomic mag. moment =    -4.232294
atom    5   Tr[ns(na)] (up, down, total) =   4.97384  0.72435  5.69819
   spin  1
    eigenvalues:
  0.985  0.994  0.994  0.997  1.003
    eigenvectors:
  0.000  0.000  0.000  1.000  0.000
  0.000  0.296  0.704  0.000  0.000
  0.000  0.704  0.296  0.000  0.000
  0.000  0.000  0.000  0.000  1.000
  1.000  0.000  0.000  0.000  0.000
    occupations:
  0.997 -0.000 -0.000  0.000  0.000
 -0.000  0.994 -0.000  0.000  0.000
 -0.000 -0.000  0.994  0.000  0.000
  0.000  0.000  0.000  1.003 -0.000
  0.000  0.000  0.000 -0.000  0.985
   spin  2
    eigenvalues:
  0.066  0.120  0.146  0.146  0.247
    eigenvectors:
  0.000  1.000  0.000  0.000  0.000
  0.000  0.000  0.354  0.646  0.000
  0.000  0.000  0.646  0.354  0.000
  1.000  0.000  0.000  0.000  0.000
  0.000  0.000  0.000  0.000  1.000
    occupations:
  0.120 -0.000 -0.000  0.000  0.000
 -0.000  0.146 -0.000  0.000  0.000
 -0.000 -0.000  0.146  0.000  0.000
  0.000  0.000  0.000  0.066 -0.000
  0.000  0.000  0.000 -0.000  0.247
atomic mag. moment =     4.249493
atom    6   Tr[ns(na)] (up, down, total) =   4.97116  0.74228  5.71344
   spin  1
    eigenvalues:
  0.985  0.994  0.994  0.996  1.002
    eigenvectors:
  0.000  0.000  0.000  1.000  0.000
  0.000  0.349  0.651  0.000  0.000
  0.000  0.651  0.349  0.000  0.000
  0.000  0.000  0.000  0.000  1.000
  1.000  0.000  0.000  0.000  0.000
    occupations:
  0.996 -0.000 -0.000  0.000  0.000
 -0.000  0.994 -0.000  0.000  0.000
 -0.000 -0.000  0.994  0.000  0.000
  0.000  0.000  0.000  1.002 -0.000
  0.000  0.000  0.000 -0.000  0.985
   spin  2
    eigenvalues:
  0.064  0.131  0.146  0.146  0.256
    eigenvectors:
  0.000  1.000  0.000  0.000  0.000
  0.000  0.000  0.294  0.706  0.000
  0.000  0.000  0.706  0.294  0.000
  1.000  0.000  0.000  0.000  0.000
  0.000  0.000  0.000  0.000  1.000
    occupations:
  0.131 -0.000 -0.000  0.000  0.000
 -0.000  0.146 -0.000  0.000  0.000
 -0.000 -0.000  0.146  0.000  0.000
  0.000  0.000  0.000  0.064 -0.000
  0.000  0.000  0.000 -0.000  0.256
atomic mag. moment =     4.228883
atom    7   Tr[ns(na)] (up, down, total) =   0.74083  4.97165  5.71248
   spin  1
    eigenvalues:
  0.064  0.133  0.144  0.144  0.256
    eigenvectors:
  0.000  1.000  0.000  0.000  0.000
  0.000  0.000  0.298  0.702  0.000
  0.000  0.000  0.702  0.298  0.000
  1.000  0.000  0.000  0.000  0.000
  0.000  0.000  0.000  0.000  1.000
    occupations:
  0.133 -0.000 -0.000  0.000  0.000
 -0.000  0.144 -0.000  0.000  0.000
 -0.000 -0.000  0.144  0.000  0.000
  0.000  0.000  0.000  0.064 -0.000
  0.000  0.000  0.000 -0.000  0.256
   spin  2
    eigenvalues:
  0.985  0.994  0.994  0.997  1.002
    eigenvectors:
  0.000  0.000  0.000  1.000  0.000
  0.000  0.389  0.611  0.000  0.000
  0.000  0.611  0.389  0.000  0.000
  0.000  0.000  0.000  0.000  1.000
  1.000  0.000  0.000  0.000  0.000
    occupations:
  0.997 -0.000 -0.000  0.000  0.000
 -0.000  0.994 -0.000  0.000  0.000
 -0.000 -0.000  0.994  0.000  0.000
  0.000  0.000  0.000  1.002 -0.000
  0.000  0.000  0.000 -0.000  0.985
atomic mag. moment =    -4.230817
atom    8   Tr[ns(na)] (up, down, total) =   0.73903  4.97184  5.71087
   spin  1
    eigenvalues:
  0.064  0.139  0.141  0.141  0.255
    eigenvectors:
  0.000  1.000  0.000  0.000  0.000
  0.000  0.000  0.290  0.710  0.000
  0.000  0.000  0.710  0.290  0.000
  1.000  0.000  0.000  0.000  0.000
  0.000  0.000  0.000  0.000  1.000
    occupations:
  0.139 -0.000 -0.000  0.000  0.000
 -0.000  0.141 -0.000  0.000  0.000
 -0.000 -0.000  0.141  0.000  0.000
  0.000  0.000  0.000  0.064 -0.000
  0.000  0.000  0.000 -0.000  0.255
   spin  2
    eigenvalues:
  0.985  0.994  0.994  0.996  1.002
    eigenvectors:
  0.000  0.000  0.000  1.000  0.000
  0.000  0.384  0.616  0.000  0.000
  0.000  0.616  0.384  0.000  0.000
  0.000  0.000  0.000  0.000  1.000
  1.000  0.000  0.000  0.000  0.000
    occupations:
  0.996 -0.000 -0.000  0.000  0.000
 -0.000  0.994 -0.000  0.000  0.000
 -0.000 -0.000  0.994  0.000  0.000
  0.000  0.000  0.000  1.002 -0.000
  0.000  0.000  0.000 -0.000  0.985
atomic mag. moment =    -4.232810
N of occupied +U levels =   45.684732
 --- exit write_ns ---

 ------ SPIN UP ------------

          k = 0.0000 0.0000 0.0000 ( 13925 PWs)   bands (ev):

   -66.7786 -66.7784 -66.7081 -66.6939 -66.6285 -62.2267 -62.1374 -62.1237
   -35.5492 -35.5474 -35.4953 -35.4953 -35.4947 -35.4947 -35.4796 -35.4634
   -35.4245 -35.4245 -35.4117 -35.4117 -35.4086 -35.3422 -35.3422 -31.0536
   -31.0426 -31.0426 -30.9641 -30.9558 -30.9558 -30.9509 -30.9420 -30.9420
     5.7510   5.8763   5.9581   6.3321   6.3907   6.9798   7.0810   7.6143
     8.2760   8.3858   8.3883   8.4069   8.4411   8.5454   8.6009   8.7179
     8.7777   8.8043   8.8629   8.9124   9.0322   9.1663   9.2027   9.2765
     9.3018   9.3729   9.4479   9.4764   9.6053   9.7132   9.8762   9.8989
     9.9108   9.9387  10.0220  10.0996  10.1170  10.1170  10.1605  10.1778
    10.1778  10.1900  10.1900  10.2311  10.2836  10.2917  10.3344  10.3344
    10.3493  10.3493  10.5336  10.5410  10.5683  10.5683  10.5748  10.5748
    10.5963  10.6009  10.6009  10.6110  10.6110  10.6559  10.6559  10.6644
    10.7003  10.7003  10.7375  10.7659  10.7659  10.9723  10.9819  10.9819
    11.0203  11.0436  11.0436  11.0940  11.1505  11.2265  11.2511  11.2730
    11.3864  11.3864  11.3883  11.4660  11.5552  11.5552  11.6466  11.6622
    11.7165  11.7510  11.8182  11.8684  11.8684  11.8891  11.9591  11.9844
    11.9844  12.0826  12.0978  12.1668  12.1856  12.2417  12.2754  12.2754
    12.5582  12.5582  12.5961  12.6700  12.6921  12.6921  12.8165  12.8588
    12.9759  12.9877  13.0754  13.2317  13.7648  14.0023  14.8337  15.5075
    16.1849  16.8302  16.8302  16.8833  16.8833  16.9328  16.9857  17.0423
    17.0964  17.1240  17.1240  17.1412  17.1955  17.5213  17.5627  17.5867
    18.4022  19.4140  19.7644  20.0622  20.0622  20.3983  20.3983  20.5132
    20.5132  21.4233

[...]

          k =-0.5000-0.5000 0.0000 ( 13964 PWs)   bands (ev):

[...]

 ------ SPIN DOWN ----------

[...]

          k = 0.3750-0.5000-0.0484 ( 13940 PWs)   bands (ev):

[...]

          k =-0.5000-0.5000-0.0484 ( 13992 PWs)   bands (ev):

   -66.8117 -66.7253 -66.7094 -62.1713 -62.1706 -62.1220 -62.1113 -62.0640
   -35.5788 -35.5403 -35.5403 -35.4931 -35.4802 -35.4555 -35.4555 -35.4383
   -35.4383 -31.0057 -31.0057 -31.0048 -31.0048 -30.9952 -30.9914 -30.9549
   -30.9549 -30.9483 -30.9461 -30.9461 -30.9344 -30.8956 -30.8956 -30.8955
     8.1105   8.1133   8.1932   8.2351   8.5206   8.5213   8.6582   8.6593
     8.9535   8.9542   9.0150   9.0600   9.2541   9.2541   9.2793   9.2793
     9.3280   9.3520   9.3627   9.3627   9.3634   9.3647   9.3774   9.3774
     9.5579   9.5579   9.5642   9.5642   9.8621   9.8621   9.8711   9.8711
     9.9309   9.9309   9.9325   9.9325   9.9379   9.9555   9.9640  10.0732
    10.0732  10.2750  10.2750  10.3120  10.3120  10.5422  10.6183  10.6280
    10.6681  10.6759  10.7858  10.7858  10.8887  10.8887  11.1406  11.1445
    11.1547  11.2791  11.3411  11.3411  11.3991  11.4328  11.4330  11.4730
    11.4730  11.4804  11.4970  11.9199  11.9607  11.9668  11.9679  11.9679
    11.9737  11.9742  11.9947  12.0037  12.0103  12.0280  12.0600  12.0648
    12.0685  12.0757  12.0918  12.0972  12.1202  12.1434  12.2057  12.2195
    12.2200  12.2643  12.3151  12.3185  12.3185  12.3411  12.3432  13.3871
    13.3998  13.4139  13.4162  13.4284  13.9296  13.9296  13.9782  13.9782
    14.3693  14.3693  14.5424  14.5424  14.7405  14.7405  15.2523  15.2523
    15.9076  15.9076  16.6139  16.6448  16.6448  16.6874  16.6964  16.8046
    16.8850  16.9809  16.9818  17.1177  17.2407  17.2407  17.6352  17.6352
    17.7972  17.8076  17.8129  17.8734  17.8734  17.9227  18.0779  18.0808
    18.1387  18.1449  18.1977  18.2033  18.2422  18.2546  18.5231  18.7734
    18.7787  18.7787

     the Fermi energy is    15.2642 ev

!    total energy              =  -14694.00716442 Ry
     Harris-Foulkes estimate   =  -14694.00715981 Ry
     estimated scf accuracy    <       0.00000056 Ry

     total all-electron energy =   -626921.602886 Ry

     The total energy is the sum of the following terms:

     one-electron contribution =    -714.50058836 Ry
     hartree contribution      =     656.54795365 Ry
     xc contribution           =    -737.87618203 Ry
     ewald contribution        =   -2196.78933708 Ry
     Hubbard energy            =       0.45115495 Ry
     one-center paw contrib.   =  -11701.84016556 Ry

     total magnetization       =     8.74 Bohr mag/cell
     absolute magnetization    =    37.26 Bohr mag/cell

     convergence has been achieved in  28 iterations

     Writing output data file mnau2.save/

     General routines

     Parallel routines

     Hubbard U routines

      11h

   This run was terminated on:  13:59:11   8Apr2019

   JOB DONE.