     Program PWSCF v.6.3MaX starts on  8Apr2019 at 15: 6:47

     R & G space division:  proc/nbgrp/npool/nimage =      32
     Waiting for input...
     Reading input from standard input

     Current dimensions of program PWSCF are:
     Max number of different atomic species (ntypx) = 10
     Max number of k-points (npk) =  40000
     Max angular momentum in pseudopotentials (lmaxx) =  3
               file Mn.pbe-spn-kjpaw_psl.0.3.1.UPF: wavefunction(s)  3P 3D renormalized
               file Mn.pbe-spn-kjpaw_psl.0.3.1.UPF: wavefunction(s)  3P 3D renormalized
               file Au.pbe-dn-kjpaw_psl.0.1.UPF: wavefunction(s)  6S 6P 5D renormalized

     bravais-lattice index     =            0
     lattice parameter (alat)  =       6.4153  a.u.
     unit-cell volume          =    2724.7774 (a.u.)^3
     number of atoms/cell      =           24
     number of atomic types    =            3
     number of electrons       =       296.00
     number of Kohn-Sham states=          178
     kinetic-energy cutoff     =      45.0000  Ry
     charge density cutoff     =     400.0000  Ry
     convergence threshold     =      1.0E-06
     mixing beta               =       0.1000
     number of iterations used =            8  plain     mixing
     Exchange-correlation      = SLA PW PBX PBC ( 1  4  3  4 0 0)

     celldm(1)=   6.415315  celldm(2)=   0.000000  celldm(3)=   0.000000
     celldm(4)=   0.000000  celldm(5)=   0.000000  celldm(6)=   0.000000

     crystal axes: (cart. coord. in units of alat)
               a(1) = (   1.000000   0.000000   0.000000 )
               a(2) = (   0.000000   1.000000   0.000000 )
               a(3) = (   0.000000   0.000000  10.319937 )

     reciprocal axes: (cart. coord. in units 2 pi/alat)
               b(1) = (  1.000000  0.000000  0.000000 )
               b(2) = (  0.000000  1.000000  0.000000 )
               b(3) = (  0.000000  0.000000  0.096900 )

     PseudoPot. # 1 for Mn read from file:
     ./pseudo/Mn.pbe-spn-kjpaw_psl.0.3.1.UPF
     MD5 check sum: 7b43a3fb0e93e198b8dd8488d8cf503e
     Pseudo is Projector augmented-wave + core cor, Zval = 15.0
     Generated using "atomic" code by A. Dal Corso v.5.0.99 svn rev. 10869
     Shape of augmentation charge: PSQ
     Using radial grid of 1187 points,  6 beta functions with:
                l(1) =   0
                l(2) =   0
                l(3) =   1
                l(4) =   1
                l(5) =   2
                l(6) =   2
     Q(r) pseudized with 0 coefficients

     PseudoPot. # 2 for Mn read from file:
     ./pseudo/Mn.pbe-spn-kjpaw_psl.0.3.1.UPF
     MD5 check sum: 7b43a3fb0e93e198b8dd8488d8cf503e
     Pseudo is Projector augmented-wave + core cor, Zval = 15.0
     Generated using "atomic" code by A. Dal Corso v.5.0.99 svn rev. 10869
     Shape of augmentation charge: PSQ
     Using radial grid of 1187 points,  6 beta functions with:
                l(1) =   0
                l(2) =   0
                l(3) =   1
                l(4) =   1
                l(5) =   2
                l(6) =   2
     Q(r) pseudized with 0 coefficients

     PseudoPot. # 3 for Au read from file:
     ./pseudo/Au.pbe-dn-kjpaw_psl.0.1.UPF
     MD5 check sum: be11e2e8e535ebe2b3ccfb4f88f554cb
     Pseudo is Projector augmented-wave + core cor, Zval = 11.0
     Generated using "atomic" code by A. Dal Corso v.5.0.2 svn rev. 9415
     Shape of augmentation charge: PSQ
     Using radial grid of 1279 points,  6 beta functions with:
                l(1) =   0
                l(2) =   0
                l(3) =   1
                l(4) =   1
                l(5) =   2
                l(6) =   2
     Q(r) pseudized with 0 coefficients

     atomic species   valence    mass     pseudopotential
        Mn1           15.00    54.93800     Mn( 1.00)
        Mn2           15.00    54.93800     Mn( 1.00)
        Au            11.00   196.96600     Au( 1.00)

     Starting magnetic structure
     atomic species   magnetization
        Mn1          0.800
        Mn2         -0.800
        Au           0.000

     Full LDA+U calculation (l_max = 2) with parameters (eV):
     U(  1) =   3.1200   J(  1) =   0.7000   B(  1) =   0.0803
     U(  2) =   3.1200   J(  2) =   0.7000   B(  2) =   0.0803

      8 Sym. Ops. (no inversion) found

   Cartesian axes

     site n.     atom                  positions (alat units)
         1           Mn1 tau(   1) = (   0.0000000   0.0000000   0.0000000  )
         2           Mn1 tau(   2) = (   0.5000000   0.5000000   1.2899921  )
         3           Mn1 tau(   3) = (   0.0000000   0.0000000   2.5799843  )
         4           Mn2 tau(   4) = (   0.5000000   0.5000000   3.8699764  )
         5           Mn1 tau(   5) = (   0.0000000   0.0000000   5.1599686  )
         6           Mn2 tau(   6) = (   0.5000000   0.5000000   6.4499607  )
         7           Mn2 tau(   7) = (   0.0000000   0.0000000   7.7399528  )
         8           Mn2 tau(   8) = (   0.5000000   0.5000000   9.0299450  )
         9           Au  tau(   9) = (   0.5000000   0.5000000   0.4127975  )
        10           Au  tau(  10) = (   0.0000000   0.0000000   0.8771947  )
        11           Au  tau(  11) = (   0.0000000   0.0000000   1.7027896  )
        12           Au  tau(  12) = (   0.5000000   0.5000000   2.1671868  )
        13           Au  tau(  13) = (   0.5000000   0.5000000   2.9927818  )
        14           Au  tau(  14) = (   0.0000000   0.0000000   3.4571789  )
        15           Au  tau(  15) = (   0.0000000   0.0000000   4.2827739  )
        16           Au  tau(  16) = (   0.5000000   0.5000000   4.7471711  )
        17           Au  tau(  17) = (   0.5000000   0.5000000   5.5727660  )
        18           Au  tau(  18) = (   0.0000000   0.0000000   6.0371632  )
        19           Au  tau(  19) = (   0.0000000   0.0000000   6.8627582  )
        20           Au  tau(  20) = (   0.5000000   0.5000000   7.3271553  )
        21           Au  tau(  21) = (   0.5000000   0.5000000   8.1527503  )
        22           Au  tau(  22) = (   0.0000000   0.0000000   8.6171475  )
        23           Au  tau(  23) = (   0.0000000   0.0000000   9.4427424  )
        24           Au  tau(  24) = (   0.5000000   0.5000000   9.9071396  )

     number of k points=    45 (tetrahedron method)
                       cart. coord. in units 2pi/alat
        k(    1) = (   0.0000000   0.0000000   0.0000000), wk =   0.0039062
        k(    2) = (   0.0000000   0.0000000   0.0242250), wk =   0.0078125
        k(    3) = (   0.0000000   0.0000000  -0.0484499), wk =   0.0039062
        k(    4) = (   0.0000000   0.1250000   0.0000000), wk =   0.0156250
        k(    5) = (   0.0000000   0.1250000   0.0242250), wk =   0.0312500
        k(    6) = (   0.0000000   0.1250000  -0.0484499), wk =   0.0156250
        k(    7) = (   0.0000000   0.2500000   0.0000000), wk =   0.0156250
        k(    8) = (   0.0000000   0.2500000   0.0242250), wk =   0.0312500
        k(    9) = (   0.0000000   0.2500000  -0.0484499), wk =   0.0156250
        k(   10) = (   0.0000000   0.3750000   0.0000000), wk =   0.0156250
        k(   11) = (   0.0000000   0.3750000   0.0242250), wk =   0.0312500
        k(   12) = (   0.0000000   0.3750000  -0.0484499), wk =   0.0156250
        k(   13) = (   0.0000000  -0.5000000   0.0000000), wk =   0.0078125
        k(   14) = (   0.0000000  -0.5000000   0.0242250), wk =   0.0156250
        k(   15) = (   0.0000000  -0.5000000  -0.0484499), wk =   0.0078125
        k(   16) = (   0.1250000   0.1250000   0.0000000), wk =   0.0156250
        k(   17) = (   0.1250000   0.1250000   0.0242250), wk =   0.0312500
        k(   18) = (   0.1250000   0.1250000  -0.0484499), wk =   0.0156250
        k(   19) = (   0.1250000   0.2500000   0.0000000), wk =   0.0312500
        k(   20) = (   0.1250000   0.2500000   0.0242250), wk =   0.0625000
        k(   21) = (   0.1250000   0.2500000  -0.0484499), wk =   0.0312500
        k(   22) = (   0.1250000   0.3750000   0.0000000), wk =   0.0312500
        k(   23) = (   0.1250000   0.3750000   0.0242250), wk =   0.0625000
        k(   24) = (   0.1250000   0.3750000  -0.0484499), wk =   0.0312500
        k(   25) = (   0.1250000  -0.5000000   0.0000000), wk =   0.0156250
        k(   26) = (   0.1250000  -0.5000000   0.0242250), wk =   0.0312500
        k(   27) = (   0.1250000  -0.5000000  -0.0484499), wk =   0.0156250
        k(   28) = (   0.2500000   0.2500000   0.0000000), wk =   0.0156250
        k(   29) = (   0.2500000   0.2500000   0.0242250), wk =   0.0312500
        k(   30) = (   0.2500000   0.2500000  -0.0484499), wk =   0.0156250
        k(   31) = (   0.2500000   0.3750000   0.0000000), wk =   0.0312500
        k(   32) = (   0.2500000   0.3750000   0.0242250), wk =   0.0625000
        k(   33) = (   0.2500000   0.3750000  -0.0484499), wk =   0.0312500
        k(   34) = (   0.2500000  -0.5000000   0.0000000), wk =   0.0156250
        k(   35) = (   0.2500000  -0.5000000   0.0242250), wk =   0.0312500
        k(   36) = (   0.2500000  -0.5000000  -0.0484499), wk =   0.0156250
        k(   37) = (   0.3750000   0.3750000   0.0000000), wk =   0.0156250
        k(   38) = (   0.3750000   0.3750000   0.0242250), wk =   0.0312500
        k(   39) = (   0.3750000   0.3750000  -0.0484499), wk =   0.0156250
        k(   40) = (   0.3750000  -0.5000000   0.0000000), wk =   0.0156250
        k(   41) = (   0.3750000  -0.5000000   0.0242250), wk =   0.0312500
        k(   42) = (   0.3750000  -0.5000000  -0.0484499), wk =   0.0156250
        k(   43) = (  -0.5000000  -0.5000000   0.0000000), wk =   0.0039062
        k(   44) = (  -0.5000000  -0.5000000   0.0242250), wk =   0.0078125
        k(   45) = (  -0.5000000  -0.5000000  -0.0484499), wk =   0.0039062

     Check: negative/imaginary core charge=   -0.000006    0.000000

     Initial potential from superposition of free atoms

     starting charge  295.99426, renormalised to  296.00000
     Number of +U iterations with fixed ns =  0
     Starting occupations:
 --- enter write_ns ---
 LDA+U parameters:
U(  1) =   3.1200   J(  1) =   0.7000   B(  1) =   0.0803
U(  2) =   3.1200   J(  2) =   0.7000   B(  2) =   0.0803
atom    1   Tr[ns(na)] (up, down, total) =   5.00000  0.00000  5.00000
   spin  1
    eigenvalues:
  1.000  1.000  1.000  1.000  1.000
    eigenvectors:
  1.000  0.000  0.000  0.000  0.000
  0.000  1.000  0.000  0.000  0.000
  0.000  0.000  1.000  0.000  0.000
  0.000  0.000  0.000  1.000  0.000
  0.000  0.000  0.000  0.000  1.000
    occupations:
  1.000  0.000  0.000  0.000  0.000
  0.000  1.000  0.000  0.000  0.000
  0.000  0.000  1.000  0.000  0.000
  0.000  0.000  0.000  1.000  0.000
  0.000  0.000  0.000  0.000  1.000
   spin  2
    eigenvalues:
  0.000  0.000  0.000  0.000  0.000
    eigenvectors:
  1.000  0.000  0.000  0.000  0.000
  0.000  1.000  0.000  0.000  0.000
  0.000  0.000  1.000  0.000  0.000
  0.000  0.000  0.000  1.000  0.000
  0.000  0.000  0.000  0.000  1.000
    occupations:
  0.000  0.000  0.000  0.000  0.000
  0.000  0.000  0.000  0.000  0.000
  0.000  0.000  0.000  0.000  0.000
  0.000  0.000  0.000  0.000  0.000
  0.000  0.000  0.000  0.000  0.000
atomic mag. moment =     5.000000
[...]
    eigenvectors:
  0.000  0.000  0.000  1.000  0.000
  0.000  0.305  0.695  0.000  0.000
  0.000  0.695  0.305  0.000  0.000
  0.000  0.000  0.000  0.000  1.000
  1.000  0.000  0.000  0.000  0.000
    occupations:
  1.004 -0.000 -0.000  0.000  0.000
 -0.000  1.003 -0.000  0.000  0.000
 -0.000 -0.000  1.003  0.000  0.000
  0.000  0.000  0.000  1.004 -0.000
  0.000  0.000  0.000 -0.000  1.003
atomic mag. moment =    -4.609817
N of occupied +U levels =   43.396263
 --- exit write_ns ---

     total energy              =  -14687.27823441 Ry
     Harris-Foulkes estimate   =  -14685.81898309 Ry
     estimated scf accuracy    <      11.55165041 Ry

     total magnetization       =    -0.00 Bohr mag/cell
     absolute magnetization    =    41.56 Bohr mag/cell

     iteration #  2     ecut=    45.00 Ry     beta= 0.10
     Davidson diagonalization with overlap
     ethr =  3.90E-03,  avg # of iterations =  1.0

[...]

     iteration # 13     ecut=    45.00 Ry     beta= 0.10
     Davidson diagonalization with overlap
     c_bands:  5 eigenvalues not converged
     c_bands:  1 eigenvalues not converged
     ethr =  9.67E-06,  avg # of iterations =  4.2

[...]

     iteration # 15     ecut=    45.00 Ry     beta= 0.10
     Davidson diagonalization with overlap
     c_bands:  1 eigenvalues not converged
     c_bands:  1 eigenvalues not converged
     c_bands:  4 eigenvalues not converged
     ethr =  2.41E-06,  avg # of iterations =  5.2

[...]

     total energy              =  -14694.00474985 Ry
     Harris-Foulkes estimate   =  -14694.00474888 Ry
     estimated scf accuracy    <       0.00000142 Ry

[...]

     iteration # 29     ecut=    45.00 Ry     beta= 0.10
     Davidson diagonalization with overlap
     ethr =  4.78E-10,  avg # of iterations =  2.1

     Magnetic moment per site:
     atom:    1    charge:   13.5487    magn:    4.2318    constr:    0.0000
     atom:    2    charge:   13.5526    magn:    4.2053    constr:    0.0000
     atom:    3    charge:   13.5460    magn:    4.2500    constr:    0.0000
     atom:    4    charge:   13.5434    magn:   -4.2586    constr:    0.0000
     atom:    5    charge:   13.5433    magn:    4.2586    constr:    0.0000
     atom:    6    charge:   13.5461    magn:   -4.2500    constr:    0.0000
     atom:    7    charge:   13.5524    magn:   -4.2053    constr:    0.0000
     atom:    8    charge:   13.5489    magn:   -4.2317    constr:    0.0000
     atom:    9    charge:    9.1218    magn:    0.0331    constr:    0.0000
     atom:   10    charge:    9.1220    magn:    0.0350    constr:    0.0000
     atom:   11    charge:    9.1224    magn:    0.0372    constr:    0.0000
     atom:   12    charge:    9.1222    magn:    0.0334    constr:    0.0000
     atom:   13    charge:    9.1234    magn:    0.0405    constr:    0.0000
     atom:   14    charge:    9.1252    magn:   -0.0385    constr:    0.0000
     atom:   15    charge:    9.1246    magn:   -0.0419    constr:    0.0000
     atom:   16    charge:    9.1245    magn:    0.0419    constr:    0.0000
     atom:   17    charge:    9.1251    magn:    0.0385    constr:    0.0000
     atom:   18    charge:    9.1235    magn:   -0.0405    constr:    0.0000
     atom:   19    charge:    9.1223    magn:   -0.0334    constr:    0.0000
     atom:   20    charge:    9.1222    magn:   -0.0372    constr:    0.0000
     atom:   21    charge:    9.1219    magn:   -0.0350    constr:    0.0000
     atom:   22    charge:    9.1220    magn:   -0.0331    constr:    0.0000
     atom:   23    charge:    9.1235    magn:   -0.0389    constr:    0.0000
     atom:   24    charge:    9.1234    magn:    0.0389    constr:    0.0000

     End of self-consistent calculation
 --- enter write_ns ---
 LDA+U parameters:
U(  1) =   3.1200   J(  1) =   0.7000   B(  1) =   0.0803
U(  2) =   3.1200   J(  2) =   0.7000   B(  2) =   0.0803
atom    1   Tr[ns(na)] (up, down, total) =   4.97114  0.73995  5.71109
   spin  1
    eigenvalues:
  0.985  0.994  0.994  0.997  1.002
    eigenvectors:
  0.000  0.000  0.000  1.000  0.000
  0.000  0.262  0.738  0.000  0.000
  0.000  0.738  0.262  0.000  0.000
  0.000  0.000  0.000  0.000  1.000
  1.000  0.000  0.000  0.000  0.000
    occupations:
  0.997 -0.000 -0.000  0.000  0.000
 -0.000  0.994 -0.000  0.000  0.000
 -0.000 -0.000  0.994  0.000  0.000
  0.000  0.000  0.000  1.002 -0.000
  0.000  0.000  0.000 -0.000  0.985
   spin  2
    eigenvalues:
  0.065  0.136  0.142  0.142  0.255
    eigenvectors:
  0.000  1.000  0.000  0.000  0.000
  0.000  0.000  0.340  0.660  0.000
  0.000  0.000  0.660  0.340  0.000
  1.000  0.000  0.000  0.000  0.000
  0.000  0.000  0.000  0.000  1.000
    occupations:
  0.136 -0.000 -0.000  0.000  0.000
 -0.000  0.142 -0.000  0.000  0.000
 -0.000 -0.000  0.142  0.000  0.000
  0.000  0.000  0.000  0.065 -0.000
  0.000  0.000  0.000 -0.000  0.255
atomic mag. moment =     4.231192
atom    2   Tr[ns(na)] (up, down, total) =   4.97004  0.76141  5.73145
   spin  1
    eigenvalues:
  0.984  0.993  0.993  0.997  1.002
    eigenvectors:
  0.000  0.000  0.000  1.000  0.000
  0.000  0.262  0.738  0.000  0.000
  0.000  0.738  0.262  0.000  0.000
  0.000  0.000  0.000  0.000  1.000
  1.000  0.000  0.000  0.000  0.000
    occupations:
  0.997 -0.000 -0.000  0.000  0.000
 -0.000  0.993 -0.000  0.000  0.000
 -0.000 -0.000  0.993  0.000  0.000
  0.000  0.000  0.000  1.002 -0.000
  0.000  0.000  0.000 -0.000  0.984
   spin  2
    eigenvalues:
  0.064  0.142  0.143  0.143  0.269
    eigenvectors:
  0.000  1.000  0.000  0.000  0.000
  0.000  0.000  0.323  0.677  0.000
  0.000  0.000  0.677  0.323  0.000
  1.000  0.000  0.000  0.000  0.000
  0.000  0.000  0.000  0.000  1.000
    occupations:
  0.142 -0.000 -0.000  0.000  0.000
 -0.000  0.143 -0.000  0.000  0.000
 -0.000 -0.000  0.143  0.000  0.000
  0.000  0.000  0.000  0.064 -0.000
  0.000  0.000  0.000 -0.000  0.269
atomic mag. moment =     4.208634
atom    3   Tr[ns(na)] (up, down, total) =   4.97354  0.72485  5.69839
   spin  1
    eigenvalues:
  0.985  0.994  0.994  0.998  1.002
    eigenvectors:
  0.000  0.000  0.000  1.000  0.000
  0.000  0.279  0.721  0.000  0.000
  0.000  0.721  0.279  0.000  0.000
  0.000  0.000  0.000  0.000  1.000
  1.000  0.000  0.000  0.000  0.000
    occupations:
  0.998 -0.000 -0.000  0.000  0.000
 -0.000  0.994 -0.000  0.000  0.000
 -0.000 -0.000  0.994  0.000  0.000
  0.000  0.000  0.000  1.002 -0.000
  0.000  0.000  0.000 -0.000  0.985
   spin  2
    eigenvalues:
  0.066  0.123  0.144  0.144  0.247
    eigenvectors:
  0.000  1.000  0.000  0.000  0.000
  0.000  0.000  0.304  0.696  0.000
  0.000  0.000  0.696  0.304  0.000
  1.000  0.000  0.000  0.000  0.000
  0.000  0.000  0.000  0.000  1.000
    occupations:
  0.123 -0.000 -0.000  0.000  0.000
 -0.000  0.144 -0.000  0.000  0.000
 -0.000 -0.000  0.144  0.000  0.000
  0.000  0.000  0.000  0.066 -0.000
  0.000  0.000  0.000 -0.000  0.247
atomic mag. moment =     4.248692
atom    4   Tr[ns(na)] (up, down, total) =   0.71734  4.97211  5.68945
   spin  1
    eigenvalues:
  0.066  0.117  0.145  0.145  0.245
    eigenvectors:
  0.000  1.000  0.000  0.000  0.000
  0.000  0.000  0.245  0.755  0.000
  0.000  0.000  0.755  0.245  0.000
  1.000  0.000  0.000  0.000  0.000
  0.000  0.000  0.000  0.000  1.000
    occupations:
  0.117 -0.000 -0.000  0.000  0.000
 -0.000  0.145 -0.000  0.000  0.000
 -0.000 -0.000  0.145  0.000  0.000
  0.000  0.000  0.000  0.066 -0.000
  0.000  0.000  0.000 -0.000  0.245
   spin  2
    eigenvalues:
  0.985  0.994  0.994  0.996  1.003
    eigenvectors:
  0.000  0.000  0.000  1.000  0.000
  0.000  0.368  0.632  0.000  0.000
  0.000  0.632  0.368  0.000  0.000
  0.000  0.000  0.000  0.000  1.000
  1.000  0.000  0.000  0.000  0.000
    occupations:
  0.996 -0.000 -0.000  0.000  0.000
 -0.000  0.994 -0.000  0.000  0.000
 -0.000 -0.000  0.994  0.000  0.000
  0.000  0.000  0.000  1.003 -0.000
  0.000  0.000  0.000 -0.000  0.985
atomic mag. moment =    -4.254770
atom    5   Tr[ns(na)] (up, down, total) =   4.97211  0.71739  5.68950
   spin  1
    eigenvalues:
  0.985  0.994  0.994  0.996  1.003
    eigenvectors:
  0.000  0.000  0.000  1.000  0.000
  0.000  0.366  0.634  0.000  0.000
  0.000  0.634  0.366  0.000  0.000
  0.000  0.000  0.000  0.000  1.000
  1.000  0.000  0.000  0.000  0.000
    occupations:
  0.996 -0.000 -0.000  0.000  0.000
 -0.000  0.994 -0.000  0.000  0.000
 -0.000 -0.000  0.994  0.000  0.000
  0.000  0.000  0.000  1.003 -0.000
  0.000  0.000  0.000 -0.000  0.985
   spin  2
    eigenvalues:
  0.066  0.117  0.145  0.145  0.245
    eigenvectors:
  0.000  1.000  0.000  0.000  0.000
  0.000  0.000  0.296  0.704  0.000
  0.000  0.000  0.704  0.296  0.000
  1.000  0.000  0.000  0.000  0.000
  0.000  0.000  0.000  0.000  1.000
    occupations:
  0.117 -0.000 -0.000  0.000  0.000
 -0.000  0.145 -0.000  0.000  0.000
 -0.000 -0.000  0.145  0.000  0.000
  0.000  0.000  0.000  0.066 -0.000
  0.000  0.000  0.000 -0.000  0.245
atomic mag. moment =     4.254728
atom    6   Tr[ns(na)] (up, down, total) =   0.72482  4.97354  5.69837
   spin  1
    eigenvalues:
  0.066  0.123  0.144  0.144  0.247
    eigenvectors:
  0.000  1.000  0.000  0.000  0.000
  0.000  0.000  0.312  0.688  0.000
  0.000  0.000  0.688  0.312  0.000
  1.000  0.000  0.000  0.000  0.000
  0.000  0.000  0.000  0.000  1.000
    occupations:
  0.123 -0.000 -0.000  0.000  0.000
 -0.000  0.144 -0.000  0.000  0.000
 -0.000 -0.000  0.144  0.000  0.000
  0.000  0.000  0.000  0.066 -0.000
  0.000  0.000  0.000 -0.000  0.247
   spin  2
    eigenvalues:
  0.985  0.994  0.994  0.998  1.002
    eigenvectors:
  0.000  0.000  0.000  1.000  0.000
  0.000  0.322  0.678  0.000  0.000
  0.000  0.678  0.322  0.000  0.000
  0.000  0.000  0.000  0.000  1.000
  1.000  0.000  0.000  0.000  0.000
    occupations:
  0.998 -0.000 -0.000  0.000  0.000
 -0.000  0.994 -0.000  0.000  0.000
 -0.000 -0.000  0.994  0.000  0.000
  0.000  0.000  0.000  1.002 -0.000
  0.000  0.000  0.000 -0.000  0.985
atomic mag. moment =    -4.248719
atom    7   Tr[ns(na)] (up, down, total) =   0.76139  4.97004  5.73143
   spin  1
    eigenvalues:
  0.064  0.142  0.143  0.143  0.269
    eigenvectors:
  0.000  1.000  0.000  0.000  0.000
  0.000  0.000  0.294  0.706  0.000
  0.000  0.000  0.706  0.294  0.000
  1.000  0.000  0.000  0.000  0.000
  0.000  0.000  0.000  0.000  1.000
    occupations:
  0.142 -0.000 -0.000  0.000  0.000
 -0.000  0.143 -0.000  0.000  0.000
 -0.000 -0.000  0.143  0.000  0.000
  0.000  0.000  0.000  0.064 -0.000
  0.000  0.000  0.000 -0.000  0.269
   spin  2
    eigenvalues:
  0.984  0.993  0.993  0.997  1.002
    eigenvectors:
  0.000  0.000  0.000  1.000  0.000
  0.000  0.252  0.748  0.000  0.000
  0.000  0.748  0.252  0.000  0.000
  0.000  0.000  0.000  0.000  1.000
  1.000  0.000  0.000  0.000  0.000
    occupations:
  0.997 -0.000 -0.000  0.000  0.000
 -0.000  0.993 -0.000  0.000  0.000
 -0.000 -0.000  0.993  0.000  0.000
  0.000  0.000  0.000  1.002 -0.000
  0.000  0.000  0.000 -0.000  0.984
atomic mag. moment =    -4.208650
atom    8   Tr[ns(na)] (up, down, total) =   0.74001  4.97115  5.71115
   spin  1
    eigenvalues:
  0.065  0.136  0.142  0.142  0.255
    eigenvectors:
  0.000  1.000  0.000  0.000  0.000
  0.000  0.000  0.293  0.707  0.000
  0.000  0.000  0.707  0.293  0.000
  1.000  0.000  0.000  0.000  0.000
  0.000  0.000  0.000  0.000  1.000
    occupations:
  0.136 -0.000 -0.000  0.000  0.000
 -0.000  0.142 -0.000  0.000  0.000
 -0.000 -0.000  0.142  0.000  0.000
  0.000  0.000  0.000  0.065 -0.000
  0.000  0.000  0.000 -0.000  0.255
   spin  2
    eigenvalues:
  0.985  0.994  0.994  0.997  1.002
    eigenvectors:
  0.000  0.000  0.000  1.000  0.000
  0.000  0.296  0.704  0.000  0.000
  0.000  0.704  0.296  0.000  0.000
  0.000  0.000  0.000  0.000  1.000
  1.000  0.000  0.000  0.000  0.000
    occupations:
  0.997 -0.000 -0.000  0.000  0.000
 -0.000  0.994 -0.000  0.000  0.000
 -0.000 -0.000  0.994  0.000  0.000
  0.000  0.000  0.000  1.002 -0.000
  0.000  0.000  0.000 -0.000  0.985
atomic mag. moment =    -4.231142
N of occupied +U levels =   45.660831
 --- exit write_ns ---

 ------ SPIN UP ------------

          k = 0.0000 0.0000 0.0000 ( 13925 PWs)   bands (ev):

   -66.8591 -66.7586 -66.7125 -66.6155 -62.2503 -62.1544 -62.1269 -62.0525
   -35.6282 -35.5740 -35.5740 -35.5265 -35.4810 -35.4762 -35.4762 -35.4304
   -35.4304 -35.3938 -35.3305 -35.3305 -31.0741 -31.0671 -31.0671 -30.9772
   -30.9742 -30.9742 -30.9517 -30.9459 -30.9459 -30.8848 -30.8695 -30.8695
     5.7637   5.8940   5.9905   6.3449   6.4326   7.0254   7.0783   7.6178
     8.3292   8.3925   8.4030   8.4658   8.5134   8.5499   8.6331   8.8292
     8.8662   8.8795   8.9502   9.1093   9.1860   9.2187   9.2267   9.2811
     9.3194   9.3753   9.4649   9.6130   9.7251   9.7302   9.9070   9.9449
    10.0255  10.0872  10.0996  10.1123  10.1123  10.1692  10.1830  10.1830
    10.1979  10.1979  10.2541  10.2878  10.3477  10.3477  10.3479  10.3519
    10.3519  10.4921  10.5469  10.5469  10.5604  10.5858  10.5858  10.6063
    10.6063  10.6117  10.6181  10.6181  10.6522  10.6522  10.6743  10.7419
    10.7663  10.7663  10.8922  10.9606  10.9606  10.9840  11.0494  11.0494
    11.0901  11.1580  11.2388  11.2567  11.2717  11.3875  11.3875  11.4010
    11.4029  11.4777  11.4913  11.4913  11.6719  11.8143  11.8143  11.8222
    11.8665  11.8993  11.9236  11.9236  11.9642  12.0018  12.1246  12.1825
    12.1911  12.2380  12.2380  12.2527  12.3277  12.3277  12.6048  12.6968
    12.6968  12.7713  12.8208  12.8631  12.9755  13.0807  13.1156  13.6304
    13.9334  14.7680  15.1274  16.0993  16.7974  16.7974  16.8557  16.8557
    16.9109  16.9447  16.9447  16.9751  17.0080  17.1007  17.1041  17.1478
    17.1750  17.2229  17.2229  17.2277  17.5160  17.5701  17.5886  17.6559
    18.5320  19.5932  19.8267  20.0893  20.0893  20.4511  20.4511  20.5651
    20.5651  21.4748

[...]

          k =-0.5000-0.5000 0.0000 ( 13964 PWs)   bands (ev):

[...]

 ------ SPIN DOWN ----------

[...]

          k = 0.3750-0.5000-0.0484 ( 13940 PWs)   bands (ev):

[...]

          k =-0.5000-0.5000-0.0484 ( 13992 PWs)   bands (ev):

   -66.8575 -66.7572 -66.7113 -66.6140 -62.2492 -62.1533 -62.1254 -62.0514
   -35.6262 -35.5844 -35.5844 -35.5248 -35.4868 -35.4868 -35.4794 -35.4412
   -35.4412 -35.3920 -35.3410 -35.3410 -31.0809 -31.0809 -31.0719 -30.9880
   -30.9880 -30.9749 -30.9593 -30.9593 -30.9490 -30.8834 -30.8834 -30.8826
     8.0586   8.0590   8.1782   8.2076   8.2942   8.4177   8.5897   8.6540
     8.8845   8.9122   8.9616   9.0437   9.2367   9.2367   9.2875   9.2875
     9.3026   9.3350   9.3452   9.3452   9.3457   9.3602   9.3791   9.3791
     9.5504   9.5504   9.5530   9.5530   9.8416   9.8525   9.8525   9.8658
     9.8658   9.9076   9.9076   9.9246   9.9246   9.9406   9.9684   9.9996
     9.9996  10.0555  10.1313  10.1313  10.2663  10.2663  10.3538  10.3538
    10.5156  10.5983  10.6688  10.6815  10.8079  10.8079  10.9217  10.9217
    11.1090  11.1262  11.1433  11.2164  11.2233  11.3084  11.3649  11.3994
    11.3994  11.4577  11.4955  11.5257  11.5354  11.5874  11.6371  11.6371
    11.9166  11.9436  11.9535  11.9711  11.9767  11.9947  11.9984  11.9984
    12.0073  12.0134  12.0349  12.0368  12.0564  12.0702  12.0804  12.0944
    12.1029  12.1271  12.1416  12.2056  12.2105  12.2682  12.2727  12.3179
    12.3439  12.4128  12.5290  12.5290  13.3536  13.4023  13.4184  13.4377
    13.8928  13.8928  14.0264  14.0264  14.3826  14.3826  14.7022  14.7022
    14.8821  14.8821  15.8704  15.8704  15.9699  15.9699  16.5761  16.6745
    16.6950  16.8434  16.8516  16.8946  16.9862  17.0124  17.0124  17.1220
    17.4225  17.4225  17.7608  17.7751  17.7751  17.8052  17.8183  17.9328
    17.9352  18.0107  18.0931  18.1290  18.2027  18.2147  18.2756  18.5441
    18.6027  18.6027

     the Fermi energy is    15.2857 ev

!    total energy              =  -14694.00475346 Ry
     Harris-Foulkes estimate   =  -14694.00474980 Ry
     estimated scf accuracy    <       0.00000086 Ry

     total all-electron energy =   -626921.600475 Ry

     The total energy is the sum of the following terms:

     one-electron contribution =    -714.47082208 Ry
     hartree contribution      =     656.52914974 Ry
     xc contribution           =    -737.87966838 Ry
     ewald contribution        =   -2196.78933708 Ry
     Hubbard energy            =       0.44948798 Ry
     one-center paw contrib.   =  -11701.84356365 Ry

     total magnetization       =     0.00 Bohr mag/cell
     absolute magnetization    =    37.23 Bohr mag/cell

     convergence has been achieved in  29 iterations

     Writing output data file mnau2.save/

     General routines

     Parallel routines

     Hubbard U routines

      17h

   This run was terminated on:  16:24:35   8Apr2019

   JOB DONE.