     Program PWSCF v.6.3MaX starts on  8Apr2019 at 16:24:38

     R & G space division:  proc/nbgrp/npool/nimage =      32
     Waiting for input...
     Reading input from standard input

     Current dimensions of program PWSCF are:
     Max number of different atomic species (ntypx) = 10
     Max number of k-points (npk) =  40000
     Max angular momentum in pseudopotentials (lmaxx) =  3
               file Mn.pbe-spn-kjpaw_psl.0.3.1.UPF: wavefunction(s)  3P 3D renormalized
               file Mn.pbe-spn-kjpaw_psl.0.3.1.UPF: wavefunction(s)  3P 3D renormalized
               file Au.pbe-dn-kjpaw_psl.0.1.UPF: wavefunction(s)  6S 6P 5D renormalized

     bravais-lattice index     =            0
     lattice parameter (alat)  =       6.4153  a.u.
     unit-cell volume          =    2724.7774 (a.u.)^3
     number of atoms/cell      =           24
     number of atomic types    =            3
     number of electrons       =       296.00
     number of Kohn-Sham states=          178
     kinetic-energy cutoff     =      45.0000  Ry
     charge density cutoff     =     400.0000  Ry
     convergence threshold     =      1.0E-06
     mixing beta               =       0.1000
     number of iterations used =            8  plain     mixing
     Exchange-correlation      = SLA PW PBX PBC ( 1  4  3  4 0 0)

     celldm(1)=   6.415315  celldm(2)=   0.000000  celldm(3)=   0.000000
     celldm(4)=   0.000000  celldm(5)=   0.000000  celldm(6)=   0.000000

     crystal axes: (cart. coord. in units of alat)
               a(1) = (   1.000000   0.000000   0.000000 )
               a(2) = (   0.000000   1.000000   0.000000 )
               a(3) = (   0.000000   0.000000  10.319937 )

     reciprocal axes: (cart. coord. in units 2 pi/alat)
               b(1) = (  1.000000  0.000000  0.000000 )
               b(2) = (  0.000000  1.000000  0.000000 )
               b(3) = (  0.000000  0.000000  0.096900 )

     PseudoPot. # 1 for Mn read from file:
     ./pseudo/Mn.pbe-spn-kjpaw_psl.0.3.1.UPF
     MD5 check sum: 7b43a3fb0e93e198b8dd8488d8cf503e
     Pseudo is Projector augmented-wave + core cor, Zval = 15.0
     Generated using "atomic" code by A. Dal Corso v.5.0.99 svn rev. 10869
     Shape of augmentation charge: PSQ
     Using radial grid of 1187 points,  6 beta functions with:
                l(1) =   0
                l(2) =   0
                l(3) =   1
                l(4) =   1
                l(5) =   2
                l(6) =   2
     Q(r) pseudized with 0 coefficients

     PseudoPot. # 2 for Mn read from file:
     ./pseudo/Mn.pbe-spn-kjpaw_psl.0.3.1.UPF
     MD5 check sum: 7b43a3fb0e93e198b8dd8488d8cf503e
     Pseudo is Projector augmented-wave + core cor, Zval = 15.0
     Generated using "atomic" code by A. Dal Corso v.5.0.99 svn rev. 10869
     Shape of augmentation charge: PSQ
     Using radial grid of 1187 points,  6 beta functions with:
                l(1) =   0
                l(2) =   0
                l(3) =   1
                l(4) =   1
                l(5) =   2
                l(6) =   2
     Q(r) pseudized with 0 coefficients

     PseudoPot. # 3 for Au read from file:
     ./pseudo/Au.pbe-dn-kjpaw_psl.0.1.UPF
     MD5 check sum: be11e2e8e535ebe2b3ccfb4f88f554cb
     Pseudo is Projector augmented-wave + core cor, Zval = 11.0
     Generated using "atomic" code by A. Dal Corso v.5.0.2 svn rev. 9415
     Shape of augmentation charge: PSQ
     Using radial grid of 1279 points,  6 beta functions with:
                l(1) =   0
                l(2) =   0
                l(3) =   1
                l(4) =   1
                l(5) =   2
                l(6) =   2
     Q(r) pseudized with 0 coefficients

     atomic species   valence    mass     pseudopotential
        Mn1           15.00    54.93800     Mn( 1.00)
        Mn2           15.00    54.93800     Mn( 1.00)
        Au            11.00   196.96600     Au( 1.00)

     Starting magnetic structure
     atomic species   magnetization
        Mn1          0.800
        Mn2         -0.800
        Au           0.000

     Full LDA+U calculation (l_max = 2) with parameters (eV):
     U(  1) =   3.1200   J(  1) =   0.7000   B(  1) =   0.0803
     U(  2) =   3.1200   J(  2) =   0.7000   B(  2) =   0.0803

     16 Sym. Ops., with inversion, found ( 8 have fractional translation)

   Cartesian axes

     site n.     atom                  positions (alat units)
         1           Mn1 tau(   1) = (   0.0000000   0.0000000   0.0000000  )
         2           Mn1 tau(   2) = (   0.5000000   0.5000000   1.2899921  )
         3           Mn1 tau(   3) = (   0.0000000   0.0000000   2.5799843  )
         4           Mn2 tau(   4) = (   0.5000000   0.5000000   3.8699764  )
         5           Mn2 tau(   5) = (   0.0000000   0.0000000   5.1599686  )
         6           Mn1 tau(   6) = (   0.5000000   0.5000000   6.4499607  )
         7           Mn2 tau(   7) = (   0.0000000   0.0000000   7.7399528  )
         8           Mn2 tau(   8) = (   0.5000000   0.5000000   9.0299450  )
         9           Au  tau(   9) = (   0.5000000   0.5000000   0.4127975  )
        10           Au  tau(  10) = (   0.0000000   0.0000000   0.8771947  )
        11           Au  tau(  11) = (   0.0000000   0.0000000   1.7027896  )
        12           Au  tau(  12) = (   0.5000000   0.5000000   2.1671868  )
        13           Au  tau(  13) = (   0.5000000   0.5000000   2.9927818  )
        14           Au  tau(  14) = (   0.0000000   0.0000000   3.4571789  )
        15           Au  tau(  15) = (   0.0000000   0.0000000   4.2827739  )
        16           Au  tau(  16) = (   0.5000000   0.5000000   4.7471711  )
        17           Au  tau(  17) = (   0.5000000   0.5000000   5.5727660  )
        18           Au  tau(  18) = (   0.0000000   0.0000000   6.0371632  )
        19           Au  tau(  19) = (   0.0000000   0.0000000   6.8627582  )
        20           Au  tau(  20) = (   0.5000000   0.5000000   7.3271553  )
        21           Au  tau(  21) = (   0.5000000   0.5000000   8.1527503  )
        22           Au  tau(  22) = (   0.0000000   0.0000000   8.6171475  )
        23           Au  tau(  23) = (   0.0000000   0.0000000   9.4427424  )
        24           Au  tau(  24) = (   0.5000000   0.5000000   9.9071396  )

     number of k points=    45 (tetrahedron method)
                       cart. coord. in units 2pi/alat
        k(    1) = (   0.0000000   0.0000000   0.0000000), wk =   0.0039062
        k(    2) = (   0.0000000   0.0000000   0.0242250), wk =   0.0078125
        k(    3) = (   0.0000000   0.0000000  -0.0484499), wk =   0.0039062
        k(    4) = (   0.0000000   0.1250000   0.0000000), wk =   0.0156250
        k(    5) = (   0.0000000   0.1250000   0.0242250), wk =   0.0312500
        k(    6) = (   0.0000000   0.1250000  -0.0484499), wk =   0.0156250
        k(    7) = (   0.0000000   0.2500000   0.0000000), wk =   0.0156250
        k(    8) = (   0.0000000   0.2500000   0.0242250), wk =   0.0312500
        k(    9) = (   0.0000000   0.2500000  -0.0484499), wk =   0.0156250
        k(   10) = (   0.0000000   0.3750000   0.0000000), wk =   0.0156250
        k(   11) = (   0.0000000   0.3750000   0.0242250), wk =   0.0312500
        k(   12) = (   0.0000000   0.3750000  -0.0484499), wk =   0.0156250
        k(   13) = (   0.0000000  -0.5000000   0.0000000), wk =   0.0078125
        k(   14) = (   0.0000000  -0.5000000   0.0242250), wk =   0.0156250
        k(   15) = (   0.0000000  -0.5000000  -0.0484499), wk =   0.0078125
        k(   16) = (   0.1250000   0.1250000   0.0000000), wk =   0.0156250
        k(   17) = (   0.1250000   0.1250000   0.0242250), wk =   0.0312500
        k(   18) = (   0.1250000   0.1250000  -0.0484499), wk =   0.0156250
        k(   19) = (   0.1250000   0.2500000   0.0000000), wk =   0.0312500
        k(   20) = (   0.1250000   0.2500000   0.0242250), wk =   0.0625000
        k(   21) = (   0.1250000   0.2500000  -0.0484499), wk =   0.0312500
        k(   22) = (   0.1250000   0.3750000   0.0000000), wk =   0.0312500
        k(   23) = (   0.1250000   0.3750000   0.0242250), wk =   0.0625000
        k(   24) = (   0.1250000   0.3750000  -0.0484499), wk =   0.0312500
        k(   25) = (   0.1250000  -0.5000000   0.0000000), wk =   0.0156250
        k(   26) = (   0.1250000  -0.5000000   0.0242250), wk =   0.0312500
        k(   27) = (   0.1250000  -0.5000000  -0.0484499), wk =   0.0156250
        k(   28) = (   0.2500000   0.2500000   0.0000000), wk =   0.0156250
        k(   29) = (   0.2500000   0.2500000   0.0242250), wk =   0.0312500
        k(   30) = (   0.2500000   0.2500000  -0.0484499), wk =   0.0156250
        k(   31) = (   0.2500000   0.3750000   0.0000000), wk =   0.0312500
        k(   32) = (   0.2500000   0.3750000   0.0242250), wk =   0.0625000
        k(   33) = (   0.2500000   0.3750000  -0.0484499), wk =   0.0312500
        k(   34) = (   0.2500000  -0.5000000   0.0000000), wk =   0.0156250
        k(   35) = (   0.2500000  -0.5000000   0.0242250), wk =   0.0312500
        k(   36) = (   0.2500000  -0.5000000  -0.0484499), wk =   0.0156250
        k(   37) = (   0.3750000   0.3750000   0.0000000), wk =   0.0156250
        k(   38) = (   0.3750000   0.3750000   0.0242250), wk =   0.0312500
        k(   39) = (   0.3750000   0.3750000  -0.0484499), wk =   0.0156250
        k(   40) = (   0.3750000  -0.5000000   0.0000000), wk =   0.0156250
        k(   41) = (   0.3750000  -0.5000000   0.0242250), wk =   0.0312500
        k(   42) = (   0.3750000  -0.5000000  -0.0484499), wk =   0.0156250
        k(   43) = (  -0.5000000  -0.5000000   0.0000000), wk =   0.0039062
        k(   44) = (  -0.5000000  -0.5000000   0.0242250), wk =   0.0078125
        k(   45) = (  -0.5000000  -0.5000000  -0.0484499), wk =   0.0039062

     Check: negative/imaginary core charge=   -0.000006    0.000000

     Initial potential from superposition of free atoms

     starting charge  295.99426, renormalised to  296.00000
     Number of +U iterations with fixed ns =  0
     Starting occupations:
 --- enter write_ns ---
 LDA+U parameters:
U(  1) =   3.1200   J(  1) =   0.7000   B(  1) =   0.0803
U(  2) =   3.1200   J(  2) =   0.7000   B(  2) =   0.0803
atom    1   Tr[ns(na)] (up, down, total) =   5.00000  0.00000  5.00000
   spin  1
    eigenvalues:
  1.000  1.000  1.000  1.000  1.000
    eigenvectors:
  1.000  0.000  0.000  0.000  0.000
  0.000  1.000  0.000  0.000  0.000
  0.000  0.000  1.000  0.000  0.000
  0.000  0.000  0.000  1.000  0.000
  0.000  0.000  0.000  0.000  1.000
    occupations:
  1.000  0.000  0.000  0.000  0.000
  0.000  1.000  0.000  0.000  0.000
  0.000  0.000  1.000  0.000  0.000
  0.000  0.000  0.000  1.000  0.000
  0.000  0.000  0.000  0.000  1.000
   spin  2
    eigenvalues:
  0.000  0.000  0.000  0.000  0.000
    eigenvectors:
  1.000  0.000  0.000  0.000  0.000
  0.000  1.000  0.000  0.000  0.000
  0.000  0.000  1.000  0.000  0.000
  0.000  0.000  0.000  1.000  0.000
  0.000  0.000  0.000  0.000  1.000
    occupations:
  0.000  0.000  0.000  0.000  0.000
  0.000  0.000  0.000  0.000  0.000
  0.000  0.000  0.000  0.000  0.000
  0.000  0.000  0.000  0.000  0.000
  0.000  0.000  0.000  0.000  0.000
[...]
   spin  1
    eigenvalues:
  0.053  0.074  0.082  0.082  0.120
    eigenvectors:
  0.000  1.000  0.000  0.000  0.000
  0.000  0.000  0.305  0.695  0.000
  0.000  0.000  0.695  0.305  0.000
  1.000  0.000  0.000  0.000  0.000
  0.000  0.000  0.000  0.000  1.000
    occupations:
  0.074 -0.000 -0.000  0.000  0.000
 -0.000  0.082 -0.000  0.000  0.000
 -0.000 -0.000  0.082  0.000  0.000
  0.000  0.000  0.000  0.053 -0.000
  0.000  0.000  0.000 -0.000  0.120
   spin  2
    eigenvalues:
  1.003  1.003  1.003  1.004  1.004
    eigenvectors:
  0.000  0.000  0.000  1.000  0.000
  0.000  0.370  0.630  0.000  0.000
  0.000  0.630  0.370  0.000  0.000
  0.000  0.000  0.000  0.000  1.000
  1.000  0.000  0.000  0.000  0.000
    occupations:
  1.004 -0.000 -0.000  0.000  0.000
 -0.000  1.003 -0.000  0.000  0.000
 -0.000 -0.000  1.003  0.000  0.000
  0.000  0.000  0.000  1.004 -0.000
  0.000  0.000  0.000 -0.000  1.003
atomic mag. moment =    -4.606104
N of occupied +U levels =   43.411185
 --- exit write_ns ---

     total energy              =  -14687.27639734 Ry
     Harris-Foulkes estimate   =  -14685.81582971 Ry
     estimated scf accuracy    <      11.55975966 Ry

     total magnetization       =     0.09 Bohr mag/cell
     absolute magnetization    =    41.52 Bohr mag/cell

     iteration #  2     ecut=    45.00 Ry     beta= 0.10
     Davidson diagonalization with overlap
     ethr =  3.91E-03,  avg # of iterations =  1.0

[...]

     total energy              =  -14694.00725185 Ry
     Harris-Foulkes estimate   =  -14694.00724967 Ry
     estimated scf accuracy    <       0.00000208 Ry

[...]

     iteration # 22     ecut=    45.00 Ry     beta= 0.10
     Davidson diagonalization with overlap
     ethr =  7.01E-10,  avg # of iterations =  2.3

     Magnetic moment per site:
     atom:    1    charge:   13.5497    magn:    4.2278    constr:    0.0000
     atom:    2    charge:   13.5534    magn:    4.1987    constr:    0.0000
     atom:    3    charge:   13.5497    magn:    4.2278    constr:    0.0000
     atom:    4    charge:   13.5479    magn:   -4.2354    constr:    0.0000
     atom:    5    charge:   13.5452    magn:   -4.2533    constr:    0.0000
     atom:    6    charge:   13.5481    magn:    4.2312    constr:    0.0000
     atom:    7    charge:   13.5452    magn:   -4.2533    constr:    0.0000
     atom:    8    charge:   13.5479    magn:   -4.2354    constr:    0.0000
     atom:    9    charge:    9.1213    magn:    0.0312    constr:    0.0000
     atom:   10    charge:    9.1218    magn:    0.0351    constr:    0.0000
     atom:   11    charge:    9.1218    magn:    0.0351    constr:    0.0000
     atom:   12    charge:    9.1213    magn:    0.0312    constr:    0.0000
     atom:   13    charge:    9.1220    magn:    0.0373    constr:    0.0000
     atom:   14    charge:    9.1240    magn:   -0.0445    constr:    0.0000
     atom:   15    charge:    9.1236    magn:   -0.0413    constr:    0.0000
     atom:   16    charge:    9.1235    magn:   -0.0397    constr:    0.0000
     atom:   17    charge:    9.1233    magn:   -0.0495    constr:    0.0000
     atom:   18    charge:    9.1232    magn:    0.0382    constr:    0.0000
     atom:   19    charge:    9.1232    magn:    0.0382    constr:    0.0000
     atom:   20    charge:    9.1233    magn:   -0.0495    constr:    0.0000
     atom:   21    charge:    9.1235    magn:   -0.0397    constr:    0.0000
     atom:   22    charge:    9.1236    magn:   -0.0413    constr:    0.0000
     atom:   23    charge:    9.1240    magn:   -0.0445    constr:    0.0000
     atom:   24    charge:    9.1220    magn:    0.0373    constr:    0.0000

     End of self-consistent calculation
 --- enter write_ns ---
 LDA+U parameters:
U(  1) =   3.1200   J(  1) =   0.7000   B(  1) =   0.0803
U(  2) =   3.1200   J(  2) =   0.7000   B(  2) =   0.0803
atom    1   Tr[ns(na)] (up, down, total) =   4.97079  0.74429  5.71508
   spin  1
    eigenvalues:
  0.984  0.993  0.993  0.997  1.002
    eigenvectors:
  0.000  0.000  0.000  1.000  0.000
  0.000  0.380  0.620  0.000  0.000
  0.000  0.620  0.380  0.000  0.000
  0.000  0.000  0.000  0.000  1.000
  1.000  0.000  0.000  0.000  0.000
    occupations:
  0.997 -0.000 -0.000  0.000  0.000
 -0.000  0.993 -0.000  0.000  0.000
 -0.000 -0.000  0.993  0.000  0.000
  0.000  0.000  0.000  1.002 -0.000
  0.000  0.000  0.000 -0.000  0.984
   spin  2
    eigenvalues:
  0.065  0.132  0.145  0.145  0.257
    eigenvectors:
  0.000  1.000  0.000  0.000  0.000
  0.000  0.000  0.327  0.673  0.000
  0.000  0.000  0.673  0.327  0.000
  1.000  0.000  0.000  0.000  0.000
  0.000  0.000  0.000  0.000  1.000
    occupations:
  0.132 -0.000 -0.000  0.000  0.000
 -0.000  0.145 -0.000  0.000  0.000
 -0.000 -0.000  0.145  0.000  0.000
  0.000  0.000  0.000  0.065 -0.000
  0.000  0.000  0.000 -0.000  0.257
atomic mag. moment =     4.226503
atom    2   Tr[ns(na)] (up, down, total) =   4.96937  0.76710  5.73646
   spin  1
    eigenvalues:
  0.984  0.993  0.993  0.996  1.002
    eigenvectors:
  0.000  0.000  0.000  1.000  0.000
  0.000  0.305  0.695  0.000  0.000
  0.000  0.695  0.305  0.000  0.000
  0.000  0.000  0.000  0.000  1.000
  1.000  0.000  0.000  0.000  0.000
    occupations:
  0.996 -0.000 -0.000  0.000  0.000
 -0.000  0.993 -0.000  0.000  0.000
 -0.000 -0.000  0.993  0.000  0.000
  0.000  0.000  0.000  1.002 -0.000
  0.000  0.000  0.000 -0.000  0.984
   spin  2
    eigenvalues:
  0.064  0.144  0.144  0.146  0.269
    eigenvectors:
  0.000  0.000  0.000  1.000  0.000
  0.000  0.412  0.588  0.000  0.000
  0.000  0.588  0.412  0.000  0.000
  1.000  0.000  0.000  0.000  0.000
  0.000  0.000  0.000  0.000  1.000
    occupations:
  0.146 -0.000 -0.000  0.000  0.000
 -0.000  0.144 -0.000  0.000  0.000
 -0.000 -0.000  0.144  0.000  0.000
  0.000  0.000  0.000  0.064 -0.000
  0.000  0.000  0.000 -0.000  0.269
atomic mag. moment =     4.202273
atom    3   Tr[ns(na)] (up, down, total) =   4.97079  0.74429  5.71508
   spin  1
    eigenvalues:
  0.984  0.993  0.993  0.997  1.002
    eigenvectors:
  0.000  0.000  0.000  1.000  0.000
  0.000  0.252  0.748  0.000  0.000
  0.000  0.748  0.252  0.000  0.000
  0.000  0.000  0.000  0.000  1.000
  1.000  0.000  0.000  0.000  0.000
    occupations:
  0.997 -0.000 -0.000  0.000  0.000
 -0.000  0.993 -0.000  0.000  0.000
 -0.000 -0.000  0.993  0.000  0.000
  0.000  0.000  0.000  1.002 -0.000
  0.000  0.000  0.000 -0.000  0.984
   spin  2
    eigenvalues:
  0.065  0.132  0.145  0.145  0.257
    eigenvectors:
  0.000  1.000  0.000  0.000  0.000
  0.000  0.000  0.250  0.750  0.000
  0.000  0.000  0.750  0.250  0.000
  1.000  0.000  0.000  0.000  0.000
  0.000  0.000  0.000  0.000  1.000
    occupations:
  0.132 -0.000 -0.000  0.000  0.000
 -0.000  0.145 -0.000  0.000  0.000
 -0.000 -0.000  0.145  0.000  0.000
  0.000  0.000  0.000  0.065 -0.000
  0.000  0.000  0.000 -0.000  0.257
atomic mag. moment =     4.226503
atom    4   Tr[ns(na)] (up, down, total) =   0.73773  4.97175  5.70948
   spin  1
    eigenvalues:
  0.064  0.134  0.141  0.141  0.257
    eigenvectors:
  0.000  1.000  0.000  0.000  0.000
  0.000  0.000  0.341  0.659  0.000
  0.000  0.000  0.659  0.341  0.000
  1.000  0.000  0.000  0.000  0.000
  0.000  0.000  0.000  0.000  1.000
    occupations:
  0.134 -0.000 -0.000  0.000  0.000
 -0.000  0.141 -0.000  0.000  0.000
 -0.000 -0.000  0.141  0.000  0.000
  0.000  0.000  0.000  0.064 -0.000
  0.000  0.000  0.000 -0.000  0.257
   spin  2
    eigenvalues:
  0.985  0.994  0.994  0.996  1.002
    eigenvectors:
  0.000  0.000  0.000  1.000  0.000
  0.000  0.301  0.699  0.000  0.000
  0.000  0.699  0.301  0.000  0.000
  0.000  0.000  0.000  0.000  1.000
  1.000  0.000  0.000  0.000  0.000
    occupations:
  0.996 -0.000 -0.000  0.000  0.000
 -0.000  0.994 -0.000  0.000  0.000
 -0.000 -0.000  0.994  0.000  0.000
  0.000  0.000  0.000  1.002 -0.000
  0.000  0.000  0.000 -0.000  0.985
atomic mag. moment =    -4.234019
atom    5   Tr[ns(na)] (up, down, total) =   0.72275  4.97404  5.69679
   spin  1
    eigenvalues:
  0.066  0.121  0.143  0.143  0.250
    eigenvectors:
  0.000  1.000  0.000  0.000  0.000
  0.000  0.000  0.236  0.764  0.000
  0.000  0.000  0.764  0.236  0.000
  1.000  0.000  0.000  0.000  0.000
  0.000  0.000  0.000  0.000  1.000
    occupations:
  0.121 -0.000 -0.000  0.000  0.000
 -0.000  0.143 -0.000  0.000  0.000
 -0.000 -0.000  0.143  0.000  0.000
  0.000  0.000  0.000  0.066 -0.000
  0.000  0.000  0.000 -0.000  0.250
   spin  2
    eigenvalues:
  0.985  0.994  0.994  0.997  1.003
    eigenvectors:
  0.000  0.000  0.000  1.000  0.000
  0.000  0.335  0.665  0.000  0.000
  0.000  0.665  0.335  0.000  0.000
  0.000  0.000  0.000  0.000  1.000
  1.000  0.000  0.000  0.000  0.000
    occupations:
  0.997 -0.000 -0.000  0.000  0.000
 -0.000  0.994 -0.000  0.000  0.000
 -0.000 -0.000  0.994  0.000  0.000
  0.000  0.000  0.000  1.003 -0.000
  0.000  0.000  0.000 -0.000  0.985
atomic mag. moment =    -4.251292
atom    6   Tr[ns(na)] (up, down, total) =   4.96902  0.74079  5.70981
   spin  1
    eigenvalues:
  0.984  0.994  0.994  0.995  1.003
    eigenvectors:
  0.000  0.000  0.000  1.000  0.000
  0.000  0.231  0.769  0.000  0.000
  0.000  0.769  0.231  0.000  0.000
  0.000  0.000  0.000  0.000  1.000
  1.000  0.000  0.000  0.000  0.000
    occupations:
  0.995 -0.000 -0.000  0.000  0.000
 -0.000  0.994 -0.000  0.000  0.000
 -0.000 -0.000  0.994  0.000  0.000
  0.000  0.000  0.000  1.003 -0.000
  0.000  0.000  0.000 -0.000  0.984
   spin  2
    eigenvalues:
  0.065  0.127  0.148  0.148  0.253
    eigenvectors:
  0.000  1.000  0.000  0.000  0.000
  0.000  0.000  0.351  0.649  0.000
  0.000  0.000  0.649  0.351  0.000
  1.000  0.000  0.000  0.000  0.000
  0.000  0.000  0.000  0.000  1.000
    occupations:
  0.127 -0.000 -0.000  0.000  0.000
 -0.000  0.148 -0.000  0.000  0.000
 -0.000 -0.000  0.148  0.000  0.000
  0.000  0.000  0.000  0.065 -0.000
  0.000  0.000  0.000 -0.000  0.253
atomic mag. moment =     4.228231
atom    7   Tr[ns(na)] (up, down, total) =   0.72275  4.97404  5.69679
   spin  1
    eigenvalues:
  0.066  0.121  0.143  0.143  0.250
    eigenvectors:
  0.000  1.000  0.000  0.000  0.000
  0.000  0.000  0.305  0.695  0.000
  0.000  0.000  0.695  0.305  0.000
  1.000  0.000  0.000  0.000  0.000
  0.000  0.000  0.000  0.000  1.000
    occupations:
  0.121 -0.000 -0.000  0.000  0.000
 -0.000  0.143 -0.000  0.000  0.000
 -0.000 -0.000  0.143  0.000  0.000
  0.000  0.000  0.000  0.066 -0.000
  0.000  0.000  0.000 -0.000  0.250
   spin  2
    eigenvalues:
  0.985  0.994  0.994  0.997  1.003
    eigenvectors:
  0.000  0.000  0.000  1.000  0.000
  0.000  0.284  0.716  0.000  0.000
  0.000  0.716  0.284  0.000  0.000
  0.000  0.000  0.000  0.000  1.000
  1.000  0.000  0.000  0.000  0.000
    occupations:
  0.997 -0.000 -0.000  0.000  0.000
 -0.000  0.994 -0.000  0.000  0.000
 -0.000 -0.000  0.994  0.000  0.000
  0.000  0.000  0.000  1.003 -0.000
  0.000  0.000  0.000 -0.000  0.985
atomic mag. moment =    -4.251292
atom    8   Tr[ns(na)] (up, down, total) =   0.73773  4.97175  5.70948
   spin  1
    eigenvalues:
  0.064  0.134  0.141  0.141  0.257
    eigenvectors:
  0.000  1.000  0.000  0.000  0.000
  0.000  0.000  0.283  0.717  0.000
  0.000  0.000  0.717  0.283  0.000
  1.000  0.000  0.000  0.000  0.000
  0.000  0.000  0.000  0.000  1.000
    occupations:
  0.134 -0.000 -0.000  0.000  0.000
 -0.000  0.141 -0.000  0.000  0.000
 -0.000 -0.000  0.141  0.000  0.000
  0.000  0.000  0.000  0.064 -0.000
  0.000  0.000  0.000 -0.000  0.257
   spin  2
    eigenvalues:
  0.985  0.994  0.994  0.996  1.002
    eigenvectors:
  0.000  0.000  0.000  1.000  0.000
  0.000  0.390  0.610  0.000  0.000
  0.000  0.610  0.390  0.000  0.000
  0.000  0.000  0.000  0.000  1.000
  1.000  0.000  0.000  0.000  0.000
    occupations:
  0.996 -0.000 -0.000  0.000  0.000
 -0.000  0.994 -0.000  0.000  0.000
 -0.000 -0.000  0.994  0.000  0.000
  0.000  0.000  0.000  1.002 -0.000
  0.000  0.000  0.000 -0.000  0.985
atomic mag. moment =    -4.234019
N of occupied +U levels =   45.688970
 --- exit write_ns ---

 ------ SPIN UP ------------

          k = 0.0000 0.0000 0.0000 ( 13925 PWs)   bands (ev):

   -66.7798 -66.6937 -66.6937 -66.6004 -62.1774 -62.1774 -62.1476 -62.1476
   -35.5484 -35.4965 -35.4965 -35.4638 -35.4638 -35.4114 -35.4114 -35.4114
   -35.4114 -35.3757 -35.3172 -35.3172 -31.0038 -31.0038 -30.9953 -30.9953
   -30.9952 -30.9952 -30.9751 -30.9751 -30.9652 -30.9652 -30.9652 -30.9652
     5.7853   5.9006   5.9819   6.3910   6.3943   7.0137   7.0956   7.6204
     8.3493   8.4040   8.4196   8.4973   8.5426   8.5655   8.6266   8.8459
     8.8709   8.8776   8.9683   9.1102   9.1469   9.1803   9.2504   9.2838
     9.3056   9.3761   9.4597   9.6087   9.7509   9.8552   9.9218   9.9602
     9.9810  10.0446  10.1215  10.1260  10.1260  10.1869  10.1869  10.1885
    10.1885  10.2515  10.2591  10.2928  10.3001  10.3439  10.3439  10.3531
    10.3531  10.4861  10.5443  10.5933  10.5933  10.6016  10.6074  10.6074
    10.6130  10.6130  10.6247  10.6247  10.6698  10.6778  10.6778  10.7420
    10.7768  10.7768  10.9153  10.9682  10.9682  11.0046  11.0498  11.0498
    11.0522  11.1575  11.2544  11.2549  11.3086  11.3713  11.3713  11.4111
    11.4469  11.4957  11.5226  11.5226  11.6911  11.8108  11.8108  11.8285
    11.8848  11.8848  11.9020  11.9169  11.9806  12.0098  12.1055  12.1727
    12.2004  12.2470  12.2915  12.2915  12.3212  12.3212  12.6261  12.7063
    12.7063  12.8106  12.8213  12.8834  12.9407  13.0913  13.1817  13.6915
    13.7835  14.8238  15.1552  16.0968  16.7821  16.7821  16.8059  16.8059
    16.9551  16.9552  17.0175  17.0176  17.0755  17.0755  17.1068  17.1068
    17.1236  17.1236  17.1767  17.1768  17.5122  17.5316  17.6057  17.6240
    18.5641  19.5720  19.8299  20.1082  20.1082  20.4579  20.4579  20.5592
    20.5592  21.5200

[...]

          k =-0.5000-0.5000 0.0000 ( 13964 PWs)   bands (ev):

[...]

 ------ SPIN DOWN ----------

[...]

          k = 0.3750-0.5000-0.0484 ( 13940 PWs)   bands (ev):

[...]

          k =-0.5000-0.5000-0.0484 ( 13992 PWs)   bands (ev):

   -66.7833 -66.7833 -66.7355 -66.7355 -62.1972 -62.1107 -62.1107 -62.0420
   -35.5562 -35.5562 -35.5100 -35.5100 -35.5100 -35.5100 -35.5071 -35.5071
   -35.4636 -35.4636 -35.4636 -35.4636 -31.0291 -31.0291 -31.0220 -30.9454
   -30.9454 -30.9454 -30.9454 -30.9339 -30.9339 -30.8746 -30.8746 -30.8729
     8.0586   8.0662   8.1090   8.1199   8.4433   8.5065   8.5077   8.6185
     8.8004   8.9042   9.0106   9.0442   9.2412   9.2412   9.2771   9.2771
     9.3203   9.3344   9.3351   9.3454   9.3454   9.3464   9.3694   9.3694
     9.5432   9.5432   9.5522   9.5522   9.8508   9.8508   9.8533   9.8611
     9.8611   9.8986   9.8986   9.8989   9.8989   9.9456   9.9478   9.9954
    10.0434  10.0434  10.0468  10.0468  10.2735  10.2735  10.3245  10.3245
    10.5543  10.5850  10.6678  10.6837  10.7848  10.7848  10.9648  10.9648
    11.0973  11.1112  11.1173  11.1267  11.3568  11.4062  11.4104  11.4140
    11.4361  11.4362  11.4464  11.4464  11.4732  11.4732  11.4738  11.4738
    11.9448  11.9449  11.9570  11.9615  11.9616  11.9930  11.9930  12.0346
    12.0404  12.0405  12.0494  12.0542  12.0543  12.0909  12.0910  12.1268
    12.1965  12.1965  12.1965  12.1994  12.2041  12.2522  12.2763  12.3268
    12.3332  12.3567  12.3917  12.3917  13.3619  13.4045  13.4202  13.4388
    13.8875  13.8875  14.0046  14.0046  14.3726  14.3726  14.7278  14.7278
    15.1966  15.1966  15.2462  15.2462  16.5453  16.5453  16.6032  16.6705
    16.6977  16.7355  16.7355  16.7377  16.8912  16.9335  17.0057  17.0544
    17.4131  17.4131  17.7903  17.8005  17.8135  17.8144  17.8285  17.8285
    18.0532  18.0673  18.1459  18.1459  18.2122  18.2209  18.2806  18.4955
    18.6212  18.6212

     the Fermi energy is    15.2680 ev

!    total energy              =  -14694.00726083 Ry
     Harris-Foulkes estimate   =  -14694.00725184 Ry
     estimated scf accuracy    <       0.00000082 Ry

     total all-electron energy =   -626921.602983 Ry

     The total energy is the sum of the following terms:

     one-electron contribution =    -714.51352106 Ry
     hartree contribution      =     656.56006670 Ry
     xc contribution           =    -737.87634627 Ry
     ewald contribution        =   -2196.78933708 Ry
     Hubbard energy            =       0.45123011 Ry
     one-center paw contrib.   =  -11701.83935323 Ry

     total magnetization       =    -0.25 Bohr mag/cell
     absolute magnetization    =    37.25 Bohr mag/cell

     convergence has been achieved in  22 iterations

     Writing output data file mnau2.save/

     General routines

     Parallel routines

     Hubbard U routines

       3h

   This run was terminated on:  17:28:37   8Apr2019

   JOB DONE.