     Program PWSCF v.6.3MaX starts on  8Apr2019 at 17:28:40

     R & G space division:  proc/nbgrp/npool/nimage =      32
     Waiting for input...
     Reading input from standard input

     Current dimensions of program PWSCF are:
     Max number of different atomic species (ntypx) = 10
     Max number of k-points (npk) =  40000
     Max angular momentum in pseudopotentials (lmaxx) =  3
               file Mn.pbe-spn-kjpaw_psl.0.3.1.UPF: wavefunction(s)  3P 3D renormalized
               file Mn.pbe-spn-kjpaw_psl.0.3.1.UPF: wavefunction(s)  3P 3D renormalized
               file Au.pbe-dn-kjpaw_psl.0.1.UPF: wavefunction(s)  6S 6P 5D renormalized

     bravais-lattice index     =            0
     lattice parameter (alat)  =       6.4153  a.u.
     unit-cell volume          =    2724.7774 (a.u.)^3
     number of atoms/cell      =           24
     number of atomic types    =            3
     number of electrons       =       296.00
     number of Kohn-Sham states=          178
     kinetic-energy cutoff     =      45.0000  Ry
     charge density cutoff     =     400.0000  Ry
     convergence threshold     =      1.0E-06
     mixing beta               =       0.1000
     number of iterations used =            8  plain     mixing
     Exchange-correlation      = SLA PW PBX PBC ( 1  4  3  4 0 0)

     celldm(1)=   6.415315  celldm(2)=   0.000000  celldm(3)=   0.000000
     celldm(4)=   0.000000  celldm(5)=   0.000000  celldm(6)=   0.000000

     crystal axes: (cart. coord. in units of alat)
               a(1) = (   1.000000   0.000000   0.000000 )
               a(2) = (   0.000000   1.000000   0.000000 )
               a(3) = (   0.000000   0.000000  10.319937 )

     reciprocal axes: (cart. coord. in units 2 pi/alat)
               b(1) = (  1.000000  0.000000  0.000000 )
               b(2) = (  0.000000  1.000000  0.000000 )
               b(3) = (  0.000000  0.000000  0.096900 )

     PseudoPot. # 1 for Mn read from file:
     ./pseudo/Mn.pbe-spn-kjpaw_psl.0.3.1.UPF
     MD5 check sum: 7b43a3fb0e93e198b8dd8488d8cf503e
     Pseudo is Projector augmented-wave + core cor, Zval = 15.0
     Generated using "atomic" code by A. Dal Corso v.5.0.99 svn rev. 10869
     Shape of augmentation charge: PSQ
     Using radial grid of 1187 points,  6 beta functions with:
                l(1) =   0
                l(2) =   0
                l(3) =   1
                l(4) =   1
                l(5) =   2
                l(6) =   2
     Q(r) pseudized with 0 coefficients

     PseudoPot. # 2 for Mn read from file:
     ./pseudo/Mn.pbe-spn-kjpaw_psl.0.3.1.UPF
     MD5 check sum: 7b43a3fb0e93e198b8dd8488d8cf503e
     Pseudo is Projector augmented-wave + core cor, Zval = 15.0
     Generated using "atomic" code by A. Dal Corso v.5.0.99 svn rev. 10869
     Shape of augmentation charge: PSQ
     Using radial grid of 1187 points,  6 beta functions with:
                l(1) =   0
                l(2) =   0
                l(3) =   1
                l(4) =   1
                l(5) =   2
                l(6) =   2
     Q(r) pseudized with 0 coefficients

     PseudoPot. # 3 for Au read from file:
     ./pseudo/Au.pbe-dn-kjpaw_psl.0.1.UPF
     MD5 check sum: be11e2e8e535ebe2b3ccfb4f88f554cb
     Pseudo is Projector augmented-wave + core cor, Zval = 11.0
     Generated using "atomic" code by A. Dal Corso v.5.0.2 svn rev. 9415
     Shape of augmentation charge: PSQ
     Using radial grid of 1279 points,  6 beta functions with:
                l(1) =   0
                l(2) =   0
                l(3) =   1
                l(4) =   1
                l(5) =   2
                l(6) =   2
     Q(r) pseudized with 0 coefficients

     atomic species   valence    mass     pseudopotential
        Mn1           15.00    54.93800     Mn( 1.00)
        Mn2           15.00    54.93800     Mn( 1.00)
        Au            11.00   196.96600     Au( 1.00)

     Starting magnetic structure
     atomic species   magnetization
        Mn1          0.800
        Mn2         -0.800
        Au           0.000

     Full LDA+U calculation (l_max = 2) with parameters (eV):
     U(  1) =   3.1200   J(  1) =   0.7000   B(  1) =   0.0803
     U(  2) =   3.1200   J(  2) =   0.7000   B(  2) =   0.0803

     16 Sym. Ops., with inversion, found ( 8 have fractional translation)

   Cartesian axes

     site n.     atom                  positions (alat units)
         1           Mn1 tau(   1) = (   0.0000000   0.0000000   0.0000000  )
         2           Mn1 tau(   2) = (   0.5000000   0.5000000   1.2899921  )
         3           Mn2 tau(   3) = (   0.0000000   0.0000000   2.5799843  )
         4           Mn1 tau(   4) = (   0.5000000   0.5000000   3.8699764  )
         5           Mn1 tau(   5) = (   0.0000000   0.0000000   5.1599686  )
         6           Mn2 tau(   6) = (   0.5000000   0.5000000   6.4499607  )
         7           Mn1 tau(   7) = (   0.0000000   0.0000000   7.7399528  )
         8           Mn2 tau(   8) = (   0.5000000   0.5000000   9.0299450  )
         9           Au  tau(   9) = (   0.5000000   0.5000000   0.4127975  )
        10           Au  tau(  10) = (   0.0000000   0.0000000   0.8771947  )
        11           Au  tau(  11) = (   0.0000000   0.0000000   1.7027896  )
        12           Au  tau(  12) = (   0.5000000   0.5000000   2.1671868  )
        13           Au  tau(  13) = (   0.5000000   0.5000000   2.9927818  )
        14           Au  tau(  14) = (   0.0000000   0.0000000   3.4571789  )
        15           Au  tau(  15) = (   0.0000000   0.0000000   4.2827739  )
        16           Au  tau(  16) = (   0.5000000   0.5000000   4.7471711  )
        17           Au  tau(  17) = (   0.5000000   0.5000000   5.5727660  )
        18           Au  tau(  18) = (   0.0000000   0.0000000   6.0371632  )
        19           Au  tau(  19) = (   0.0000000   0.0000000   6.8627582  )
        20           Au  tau(  20) = (   0.5000000   0.5000000   7.3271553  )
        21           Au  tau(  21) = (   0.5000000   0.5000000   8.1527503  )
        22           Au  tau(  22) = (   0.0000000   0.0000000   8.6171475  )
        23           Au  tau(  23) = (   0.0000000   0.0000000   9.4427424  )
        24           Au  tau(  24) = (   0.5000000   0.5000000   9.9071396  )

     number of k points=    45 (tetrahedron method)
                       cart. coord. in units 2pi/alat
        k(    1) = (   0.0000000   0.0000000   0.0000000), wk =   0.0039062
        k(    2) = (   0.0000000   0.0000000   0.0242250), wk =   0.0078125
        k(    3) = (   0.0000000   0.0000000  -0.0484499), wk =   0.0039062
        k(    4) = (   0.0000000   0.1250000   0.0000000), wk =   0.0156250
        k(    5) = (   0.0000000   0.1250000   0.0242250), wk =   0.0312500
        k(    6) = (   0.0000000   0.1250000  -0.0484499), wk =   0.0156250
        k(    7) = (   0.0000000   0.2500000   0.0000000), wk =   0.0156250
        k(    8) = (   0.0000000   0.2500000   0.0242250), wk =   0.0312500
        k(    9) = (   0.0000000   0.2500000  -0.0484499), wk =   0.0156250
        k(   10) = (   0.0000000   0.3750000   0.0000000), wk =   0.0156250
        k(   11) = (   0.0000000   0.3750000   0.0242250), wk =   0.0312500
        k(   12) = (   0.0000000   0.3750000  -0.0484499), wk =   0.0156250
        k(   13) = (   0.0000000  -0.5000000   0.0000000), wk =   0.0078125
        k(   14) = (   0.0000000  -0.5000000   0.0242250), wk =   0.0156250
        k(   15) = (   0.0000000  -0.5000000  -0.0484499), wk =   0.0078125
        k(   16) = (   0.1250000   0.1250000   0.0000000), wk =   0.0156250
        k(   17) = (   0.1250000   0.1250000   0.0242250), wk =   0.0312500
        k(   18) = (   0.1250000   0.1250000  -0.0484499), wk =   0.0156250
        k(   19) = (   0.1250000   0.2500000   0.0000000), wk =   0.0312500
        k(   20) = (   0.1250000   0.2500000   0.0242250), wk =   0.0625000
        k(   21) = (   0.1250000   0.2500000  -0.0484499), wk =   0.0312500
        k(   22) = (   0.1250000   0.3750000   0.0000000), wk =   0.0312500
        k(   23) = (   0.1250000   0.3750000   0.0242250), wk =   0.0625000
        k(   24) = (   0.1250000   0.3750000  -0.0484499), wk =   0.0312500
        k(   25) = (   0.1250000  -0.5000000   0.0000000), wk =   0.0156250
        k(   26) = (   0.1250000  -0.5000000   0.0242250), wk =   0.0312500
        k(   27) = (   0.1250000  -0.5000000  -0.0484499), wk =   0.0156250
        k(   28) = (   0.2500000   0.2500000   0.0000000), wk =   0.0156250
        k(   29) = (   0.2500000   0.2500000   0.0242250), wk =   0.0312500
        k(   30) = (   0.2500000   0.2500000  -0.0484499), wk =   0.0156250
        k(   31) = (   0.2500000   0.3750000   0.0000000), wk =   0.0312500
        k(   32) = (   0.2500000   0.3750000   0.0242250), wk =   0.0625000
        k(   33) = (   0.2500000   0.3750000  -0.0484499), wk =   0.0312500
        k(   34) = (   0.2500000  -0.5000000   0.0000000), wk =   0.0156250
        k(   35) = (   0.2500000  -0.5000000   0.0242250), wk =   0.0312500
        k(   36) = (   0.2500000  -0.5000000  -0.0484499), wk =   0.0156250
        k(   37) = (   0.3750000   0.3750000   0.0000000), wk =   0.0156250
        k(   38) = (   0.3750000   0.3750000   0.0242250), wk =   0.0312500
        k(   39) = (   0.3750000   0.3750000  -0.0484499), wk =   0.0156250
        k(   40) = (   0.3750000  -0.5000000   0.0000000), wk =   0.0156250
        k(   41) = (   0.3750000  -0.5000000   0.0242250), wk =   0.0312500
        k(   42) = (   0.3750000  -0.5000000  -0.0484499), wk =   0.0156250
        k(   43) = (  -0.5000000  -0.5000000   0.0000000), wk =   0.0039062
        k(   44) = (  -0.5000000  -0.5000000   0.0242250), wk =   0.0078125
        k(   45) = (  -0.5000000  -0.5000000  -0.0484499), wk =   0.0039062

     Check: negative/imaginary core charge=   -0.000006    0.000000

     Initial potential from superposition of free atoms

     starting charge  295.99426, renormalised to  296.00000
     Number of +U iterations with fixed ns =  0
     Starting occupations:
 --- enter write_ns ---
 LDA+U parameters:
U(  1) =   3.1200   J(  1) =   0.7000   B(  1) =   0.0803
U(  2) =   3.1200   J(  2) =   0.7000   B(  2) =   0.0803
atom    1   Tr[ns(na)] (up, down, total) =   5.00000  0.00000  5.00000
   spin  1
    eigenvalues:
  1.000  1.000  1.000  1.000  1.000
    eigenvectors:
  1.000  0.000  0.000  0.000  0.000
  0.000  1.000  0.000  0.000  0.000
  0.000  0.000  1.000  0.000  0.000
  0.000  0.000  0.000  1.000  0.000
  0.000  0.000  0.000  0.000  1.000
    occupations:
  1.000  0.000  0.000  0.000  0.000
  0.000  1.000  0.000  0.000  0.000
  0.000  0.000  1.000  0.000  0.000
  0.000  0.000  0.000  1.000  0.000
  0.000  0.000  0.000  0.000  1.000
   spin  2
    eigenvalues:
  0.000  0.000  0.000  0.000  0.000
    eigenvectors:
  1.000  0.000  0.000  0.000  0.000
  0.000  1.000  0.000  0.000  0.000
  0.000  0.000  1.000  0.000  0.000
  0.000  0.000  0.000  1.000  0.000
  0.000  0.000  0.000  0.000  1.000
    occupations:
  0.000  0.000  0.000  0.000  0.000
  0.000  0.000  0.000  0.000  0.000
  0.000  0.000  0.000  0.000  0.000
  0.000  0.000  0.000  0.000  0.000
  0.000  0.000  0.000  0.000  0.000
[...]
  1.000  0.000  0.000  0.000  0.000
  0.000  0.000  0.000  0.000  1.000
    occupations:
  0.073 -0.000 -0.000  0.000  0.000
 -0.000  0.080 -0.000  0.000  0.000
 -0.000 -0.000  0.080  0.000  0.000
  0.000  0.000  0.000  0.053 -0.000
  0.000  0.000  0.000 -0.000  0.124
   spin  2
    eigenvalues:
  1.003  1.003  1.003  1.004  1.004
    eigenvectors:
  0.000  0.000  0.000  1.000  0.000
  0.000  0.269  0.731  0.000  0.000
  0.000  0.731  0.269  0.000  0.000
  0.000  0.000  0.000  0.000  1.000
  1.000  0.000  0.000  0.000  0.000
    occupations:
  1.004 -0.000 -0.000  0.000  0.000
 -0.000  1.003 -0.000  0.000  0.000
 -0.000 -0.000  1.003  0.000  0.000
  0.000  0.000  0.000  1.004 -0.000
  0.000  0.000  0.000 -0.000  1.003
atomic mag. moment =    -4.607207
N of occupied +U levels =   43.424872
 --- exit write_ns ---

     total energy              =  -14687.28131359 Ry
     Harris-Foulkes estimate   =  -14685.81986596 Ry
     estimated scf accuracy    <      11.56848365 Ry

     total magnetization       =     9.98 Bohr mag/cell
     absolute magnetization    =    41.58 Bohr mag/cell

     iteration #  2     ecut=    45.00 Ry     beta= 0.10
     Davidson diagonalization with overlap
     ethr =  3.91E-03,  avg # of iterations =  1.0

[...]

     iteration # 14     ecut=    45.00 Ry     beta= 0.10
     Davidson diagonalization with overlap
     c_bands:  2 eigenvalues not converged
     ethr =  9.94E-07,  avg # of iterations =  2.3

[...]

     total energy              =  -14693.99966253 Ry
     Harris-Foulkes estimate   =  -14693.99966115 Ry
     estimated scf accuracy    <       0.00000177 Ry

[...]

     iteration # 24     ecut=    45.00 Ry     beta= 0.10
     Davidson diagonalization with overlap
     ethr =  4.29E-10,  avg # of iterations =  2.0

     Magnetic moment per site:
     atom:    1    charge:   13.5460    magn:    4.2453    constr:    0.0000
     atom:    2    charge:   13.5455    magn:    4.2507    constr:    0.0000
     atom:    3    charge:   13.5471    magn:   -4.2401    constr:    0.0000
     atom:    4    charge:   13.5455    magn:    4.2507    constr:    0.0000
     atom:    5    charge:   13.5460    magn:    4.2453    constr:    0.0000
     atom:    6    charge:   13.5445    magn:   -4.2581    constr:    0.0000
     atom:    7    charge:   13.5415    magn:    4.2770    constr:    0.0000
     atom:    8    charge:   13.5445    magn:   -4.2581    constr:    0.0000
     atom:    9    charge:    9.1236    magn:    0.0399    constr:    0.0000
     atom:   10    charge:    9.1236    magn:    0.0385    constr:    0.0000
     atom:   11    charge:    9.1237    magn:    0.0457    constr:    0.0000
     atom:   12    charge:    9.1231    magn:   -0.0392    constr:    0.0000
     atom:   13    charge:    9.1231    magn:   -0.0392    constr:    0.0000
     atom:   14    charge:    9.1237    magn:    0.0457    constr:    0.0000
     atom:   15    charge:    9.1236    magn:    0.0385    constr:    0.0000
     atom:   16    charge:    9.1236    magn:    0.0399    constr:    0.0000
     atom:   17    charge:    9.1242    magn:    0.0437    constr:    0.0000
     atom:   18    charge:    9.1235    magn:   -0.0393    constr:    0.0000
     atom:   19    charge:    9.1253    magn:   -0.0368    constr:    0.0000
     atom:   20    charge:    9.1251    magn:    0.0385    constr:    0.0000
     atom:   21    charge:    9.1251    magn:    0.0385    constr:    0.0000
     atom:   22    charge:    9.1253    magn:   -0.0368    constr:    0.0000
     atom:   23    charge:    9.1235    magn:   -0.0393    constr:    0.0000
     atom:   24    charge:    9.1242    magn:    0.0437    constr:    0.0000

     End of self-consistent calculation
 --- enter write_ns ---
 LDA+U parameters:
U(  1) =   3.1200   J(  1) =   0.7000   B(  1) =   0.0803
U(  2) =   3.1200   J(  2) =   0.7000   B(  2) =   0.0803
atom    1   Tr[ns(na)] (up, down, total) =   4.97317  0.72857  5.70174
   spin  1
    eigenvalues:
  0.985  0.994  0.994  0.997  1.002
    eigenvectors:
  0.000  0.000  0.000  1.000  0.000
  0.000  0.272  0.728  0.000  0.000
  0.000  0.728  0.272  0.000  0.000
  0.000  0.000  0.000  0.000  1.000
  1.000  0.000  0.000  0.000  0.000
    occupations:
  0.997 -0.000 -0.000  0.000  0.000
 -0.000  0.994 -0.000  0.000  0.000
 -0.000 -0.000  0.994  0.000  0.000
  0.000  0.000  0.000  1.002 -0.000
  0.000  0.000  0.000 -0.000  0.985
   spin  2
    eigenvalues:
  0.066  0.127  0.143  0.143  0.250
    eigenvectors:
  0.000  1.000  0.000  0.000  0.000
  0.000  0.000  0.343  0.657  0.000
  0.000  0.000  0.657  0.343  0.000
  1.000  0.000  0.000  0.000  0.000
  0.000  0.000  0.000  0.000  1.000
    occupations:
  0.127 -0.000 -0.000  0.000  0.000
 -0.000  0.143 -0.000  0.000  0.000
 -0.000 -0.000  0.143  0.000  0.000
  0.000  0.000  0.000  0.066 -0.000
  0.000  0.000  0.000 -0.000  0.250
atomic mag. moment =     4.244595
atom    2   Tr[ns(na)] (up, down, total) =   4.97372  0.72434  5.69806
   spin  1
    eigenvalues:
  0.985  0.994  0.994  0.997  1.002
    eigenvectors:
  0.000  0.000  0.000  1.000  0.000
  0.000  0.311  0.689  0.000  0.000
  0.000  0.689  0.311  0.000  0.000
  0.000  0.000  0.000  0.000  1.000
  1.000  0.000  0.000  0.000  0.000
    occupations:
  0.997 -0.000 -0.000  0.000  0.000
 -0.000  0.994 -0.000  0.000  0.000
 -0.000 -0.000  0.994  0.000  0.000
  0.000  0.000  0.000  1.002 -0.000
  0.000  0.000  0.000 -0.000  0.985
   spin  2
    eigenvalues:
  0.066  0.122  0.144  0.144  0.249
    eigenvectors:
  0.000  1.000  0.000  0.000  0.000
  0.000  0.000  0.366  0.634  0.000
  0.000  0.000  0.634  0.366  0.000
  1.000  0.000  0.000  0.000  0.000
  0.000  0.000  0.000  0.000  1.000
    occupations:
  0.122 -0.000 -0.000  0.000  0.000
 -0.000  0.144 -0.000  0.000  0.000
 -0.000 -0.000  0.144  0.000  0.000
  0.000  0.000  0.000  0.066 -0.000
  0.000  0.000  0.000 -0.000  0.249
atomic mag. moment =     4.249374
atom    3   Tr[ns(na)] (up, down, total) =   0.73461  4.97005  5.70467
   spin  1
    eigenvalues:
  0.065  0.125  0.147  0.147  0.251
    eigenvectors:
  0.000  1.000  0.000  0.000  0.000
  0.000  0.000  0.338  0.662  0.000
  0.000  0.000  0.662  0.338  0.000
  1.000  0.000  0.000  0.000  0.000
  0.000  0.000  0.000  0.000  1.000
    occupations:
  0.125 -0.000 -0.000  0.000  0.000
 -0.000  0.147 -0.000  0.000  0.000
 -0.000 -0.000  0.147  0.000  0.000
  0.000  0.000  0.000  0.065 -0.000
  0.000  0.000  0.000 -0.000  0.251
   spin  2
    eigenvalues:
  0.984  0.994  0.994  0.996  1.003
    eigenvectors:
  0.000  0.000  0.000  1.000  0.000
  0.000  0.246  0.754  0.000  0.000
  0.000  0.754  0.246  0.000  0.000
  0.000  0.000  0.000  0.000  1.000
  1.000  0.000  0.000  0.000  0.000
    occupations:
  0.996 -0.000 -0.000  0.000  0.000
 -0.000  0.994 -0.000  0.000  0.000
 -0.000 -0.000  0.994  0.000  0.000
  0.000  0.000  0.000  1.003 -0.000
  0.000  0.000  0.000 -0.000  0.984
atomic mag. moment =    -4.235439
atom    4   Tr[ns(na)] (up, down, total) =   4.97372  0.72434  5.69806
   spin  1
    eigenvalues:
  0.985  0.994  0.994  0.997  1.002
    eigenvectors:
  0.000  0.000  0.000  1.000  0.000
  0.000  0.372  0.628  0.000  0.000
  0.000  0.628  0.372  0.000  0.000
  0.000  0.000  0.000  0.000  1.000
  1.000  0.000  0.000  0.000  0.000
    occupations:
  0.997 -0.000 -0.000  0.000  0.000
 -0.000  0.994 -0.000  0.000  0.000
 -0.000 -0.000  0.994  0.000  0.000
  0.000  0.000  0.000  1.002 -0.000
  0.000  0.000  0.000 -0.000  0.985
   spin  2
    eigenvalues:
  0.066  0.122  0.144  0.144  0.249
    eigenvectors:
  0.000  1.000  0.000  0.000  0.000
  0.000  0.000  0.353  0.647  0.000
  0.000  0.000  0.647  0.353  0.000
  1.000  0.000  0.000  0.000  0.000
  0.000  0.000  0.000  0.000  1.000
    occupations:
  0.122 -0.000 -0.000  0.000  0.000
 -0.000  0.144 -0.000  0.000  0.000
 -0.000 -0.000  0.144  0.000  0.000
  0.000  0.000  0.000  0.066 -0.000
  0.000  0.000  0.000 -0.000  0.249
atomic mag. moment =     4.249374
atom    5   Tr[ns(na)] (up, down, total) =   4.97317  0.72857  5.70174
   spin  1
    eigenvalues:
  0.985  0.994  0.994  0.997  1.002
    eigenvectors:
  0.000  0.000  0.000  1.000  0.000
  0.000  0.273  0.727  0.000  0.000
  0.000  0.727  0.273  0.000  0.000
  0.000  0.000  0.000  0.000  1.000
  1.000  0.000  0.000  0.000  0.000
    occupations:
  0.997 -0.000 -0.000  0.000  0.000
 -0.000  0.994 -0.000  0.000  0.000
 -0.000 -0.000  0.994  0.000  0.000
  0.000  0.000  0.000  1.002 -0.000
  0.000  0.000  0.000 -0.000  0.985
   spin  2
    eigenvalues:
  0.066  0.127  0.143  0.143  0.250
    eigenvectors:
  0.000  1.000  0.000  0.000  0.000
  0.000  0.000  0.344  0.656  0.000
  0.000  0.000  0.656  0.344  0.000
  1.000  0.000  0.000  0.000  0.000
  0.000  0.000  0.000  0.000  1.000
    occupations:
  0.127 -0.000 -0.000  0.000  0.000
 -0.000  0.143 -0.000  0.000  0.000
 -0.000 -0.000  0.143  0.000  0.000
  0.000  0.000  0.000  0.066 -0.000
  0.000  0.000  0.000 -0.000  0.250
atomic mag. moment =     4.244595
atom    6   Tr[ns(na)] (up, down, total) =   0.71988  4.97241  5.69229
   spin  1
    eigenvalues:
  0.066  0.121  0.145  0.145  0.243
    eigenvectors:
  0.000  1.000  0.000  0.000  0.000
  0.000  0.000  0.264  0.736  0.000
  0.000  0.000  0.736  0.264  0.000
  1.000  0.000  0.000  0.000  0.000
  0.000  0.000  0.000  0.000  1.000
    occupations:
  0.121 -0.000 -0.000  0.000  0.000
 -0.000  0.145 -0.000  0.000  0.000
 -0.000 -0.000  0.145  0.000  0.000
  0.000  0.000  0.000  0.066 -0.000
  0.000  0.000  0.000 -0.000  0.243
   spin  2
    eigenvalues:
  0.985  0.994  0.994  0.997  1.003
    eigenvectors:
  0.000  0.000  0.000  1.000  0.000
  0.000  0.313  0.687  0.000  0.000
  0.000  0.687  0.313  0.000  0.000
  0.000  0.000  0.000  0.000  1.000
  1.000  0.000  0.000  0.000  0.000
    occupations:
  0.997 -0.000 -0.000  0.000  0.000
 -0.000  0.994 -0.000  0.000  0.000
 -0.000 -0.000  0.994  0.000  0.000
  0.000  0.000  0.000  1.003 -0.000
  0.000  0.000  0.000 -0.000  0.985
atomic mag. moment =    -4.252539
atom    7   Tr[ns(na)] (up, down, total) =   4.97456  0.70351  5.67807
   spin  1
    eigenvalues:
  0.985  0.994  0.994  0.999  1.003
    eigenvectors:
  0.000  0.000  0.000  1.000  0.000
  0.000  0.318  0.682  0.000  0.000
  0.000  0.682  0.318  0.000  0.000
  0.000  0.000  0.000  0.000  1.000
  1.000  0.000  0.000  0.000  0.000
    occupations:
  0.999 -0.000 -0.000  0.000  0.000
 -0.000  0.994 -0.000  0.000  0.000
 -0.000 -0.000  0.994  0.000  0.000
  0.000  0.000  0.000  1.003 -0.000
  0.000  0.000  0.000 -0.000  0.985
   spin  2
    eigenvalues:
  0.067  0.108  0.146  0.146  0.237
    eigenvectors:
  0.000  1.000  0.000  0.000  0.000
  0.000  0.000  0.311  0.689  0.000
  0.000  0.000  0.689  0.311  0.000
  1.000  0.000  0.000  0.000  0.000
  0.000  0.000  0.000  0.000  1.000
    occupations:
  0.108 -0.000 -0.000  0.000  0.000
 -0.000  0.146 -0.000  0.000  0.000
 -0.000 -0.000  0.146  0.000  0.000
  0.000  0.000  0.000  0.067 -0.000
  0.000  0.000  0.000 -0.000  0.237
atomic mag. moment =     4.271049
atom    8   Tr[ns(na)] (up, down, total) =   0.71988  4.97241  5.69229
   spin  1
    eigenvalues:
  0.066  0.121  0.145  0.145  0.243
    eigenvectors:
  0.000  1.000  0.000  0.000  0.000
  0.000  0.000  0.364  0.636  0.000
  0.000  0.000  0.636  0.364  0.000
  1.000  0.000  0.000  0.000  0.000
  0.000  0.000  0.000  0.000  1.000
    occupations:
  0.121 -0.000 -0.000  0.000  0.000
 -0.000  0.145 -0.000  0.000  0.000
 -0.000 -0.000  0.145  0.000  0.000
  0.000  0.000  0.000  0.066 -0.000
  0.000  0.000  0.000 -0.000  0.243
   spin  2
    eigenvalues:
  0.985  0.994  0.994  0.997  1.003
    eigenvectors:
  0.000  0.000  0.000  1.000  0.000
  0.000  0.271  0.729  0.000  0.000
  0.000  0.729  0.271  0.000  0.000
  0.000  0.000  0.000  0.000  1.000
  1.000  0.000  0.000  0.000  0.000
    occupations:
  0.997 -0.000 -0.000  0.000  0.000
 -0.000  0.994 -0.000  0.000  0.000
 -0.000 -0.000  0.994  0.000  0.000
  0.000  0.000  0.000  1.003 -0.000
  0.000  0.000  0.000 -0.000  0.985
atomic mag. moment =    -4.252539
N of occupied +U levels =   45.566901
 --- exit write_ns ---

 ------ SPIN UP ------------

          k = 0.0000 0.0000 0.0000 ( 13925 PWs)   bands (ev):

   -66.8396 -66.7487 -66.7487 -66.7317 -66.7317 -62.1834 -62.1834 -62.1721
   -35.6048 -35.5563 -35.5563 -35.5197 -35.5197 -35.5011 -35.5011 -35.4644
   -35.4644 -35.4644 -35.4644 -35.4484 -35.4484 -35.4484 -35.4484 -31.0049
   -31.0049 -31.0022 -31.0022 -31.0022 -31.0022 -30.9964 -30.9898 -30.9898
     5.7600   5.8960   5.9195   6.3322   6.3817   7.0107   7.0597   7.6164
     8.2829   8.4178   8.4179   8.4278   8.4730   8.4996   8.5480   8.7221
     8.7474   8.7807   8.7940   8.9104   8.9523   9.2042   9.2335   9.2612
     9.2794   9.3803   9.4520   9.4868   9.5698   9.8010   9.9220   9.9248
     9.9296   9.9737  10.1247  10.1335  10.1335  10.1380  10.1445  10.1655
    10.1728  10.1780  10.1780  10.1845  10.1948  10.1948  10.3455  10.3455
    10.3460  10.3460  10.5307  10.5704  10.5779  10.5779  10.5831  10.5831
    10.5841  10.5841  10.6036  10.6046  10.6115  10.6115  10.6140  10.6140
    10.6724  10.6982  10.6982  10.7153  10.7153  10.9640  10.9640  11.0477
    11.0477  11.0506  11.0997  11.1319  11.1507  11.2586  11.2811  11.2947
    11.3120  11.4171  11.4171  11.4277  11.4679  11.4679  11.6397  11.6937
    11.7183  11.7354  11.7448  11.7819  11.9011  11.9265  11.9265  12.0069
    12.0069  12.1071  12.1169  12.1334  12.1726  12.2495  12.3275  12.3275
    12.5479  12.5479  12.6117  12.6117  12.6618  12.6966  12.8009  12.8244
    12.9962  13.0039  13.0226  13.0759  13.8572  14.0265  15.0199  15.4003
    16.0862  16.8931  16.8931  16.9250  16.9250  16.9470  16.9470  16.9667
    16.9669  16.9856  17.1479  17.1651  17.1652  17.5773  17.5859  17.5938
    18.4390  19.5032  19.6633  20.0690  20.0690  20.4263  20.4263  20.4700
    20.4700  21.4211

[...]

          k =-0.5000-0.5000 0.0000 ( 13964 PWs)   bands (ev):

[...]

 ------ SPIN DOWN ----------

[...]

          k = 0.3750-0.5000-0.0484 ( 13940 PWs)   bands (ev):

[...]

          k =-0.5000-0.5000-0.0484 ( 13992 PWs)   bands (ev):

   -66.7905 -66.7905 -66.7607 -62.2107 -62.1418 -62.1418 -62.1298 -62.1298
   -35.5545 -35.5545 -35.5288 -35.5204 -35.5204 -35.5204 -35.5204 -35.4893
   -35.4893 -31.0458 -31.0458 -31.0275 -30.9753 -30.9753 -30.9753 -30.9753
   -30.9656 -30.9656 -30.9631 -30.9631 -30.9631 -30.9631 -30.9540 -30.9540
     8.1921   8.1989   8.2305   8.2516   8.3010   8.3756   8.6996   8.7013
     8.9269   8.9816   9.0546   9.0806   9.2715   9.2715   9.2855   9.2855
     9.3247   9.3449   9.3598   9.3598   9.3811   9.3887   9.3887   9.3902
     9.5628   9.5628   9.5696   9.5696   9.8703   9.8703   9.8730   9.8730
     9.9062   9.9676   9.9676   9.9680   9.9680   9.9801   9.9801   9.9802
    10.0325  10.2889  10.2889  10.2999  10.2999  10.5376  10.5885  10.6407
    10.6773  10.6784  10.7369  10.7369  10.9180  10.9180  11.1876  11.1960
    11.1995  11.2538  11.2690  11.2690  11.3171  11.3322  11.4252  11.4253
    11.4494  11.7085  11.7085  11.9606  11.9644  11.9645  11.9810  12.0054
    12.0064  12.0160  12.0160  12.0331  12.0331  12.0505  12.0546  12.0546
    12.0734  12.1027  12.1032  12.1113  12.1113  12.1259  12.1259  12.1819
    12.1822  12.1990  12.2378  12.2418  12.3061  12.3498  12.3849  13.4021
    13.4175  13.4295  13.4312  13.4338  13.9486  13.9486  13.9873  13.9873
    14.2463  14.2463  14.5541  14.5541  14.6527  14.6527  15.8863  15.8863
    15.9470  15.9470  16.0100  16.0100  16.6154  16.6533  16.6764  16.8047
    16.8283  16.9687  17.1066  17.1891  17.3120  17.3120  17.6591  17.6591
    17.8093  17.8138  17.8204  17.8998  17.8998  17.9420  18.0368  18.0905
    18.1111  18.1111  18.1221  18.1221  18.2690  18.3889  18.4840  18.7602
    18.7924  18.7924

     the Fermi energy is    15.2996 ev

!    total energy              =  -14693.99967037 Ry
     Harris-Foulkes estimate   =  -14693.99966373 Ry
     estimated scf accuracy    <       0.00000063 Ry

     total all-electron energy =   -626921.595392 Ry

     The total energy is the sum of the following terms:

     one-electron contribution =    -714.32831103 Ry
     hartree contribution      =     656.42437583 Ry
     xc contribution           =    -737.89563693 Ry
     ewald contribution        =   -2196.78933708 Ry
     Hubbard energy            =       0.44347291 Ry
     one-center paw contrib.   =  -11701.85423408 Ry

     total magnetization       =     8.88 Bohr mag/cell
     absolute magnetization    =    37.38 Bohr mag/cell

     convergence has been achieved in  24 iterations

     Writing output data file mnau2.save/

     General routines

     Parallel routines

     Hubbard U routines

       6h

   This run was terminated on:  18:34:42   8Apr2019

   JOB DONE.