     Program PWSCF v.6.3MaX starts on  8Apr2019 at 19:46:39

     R & G space division:  proc/nbgrp/npool/nimage =      32
     Waiting for input...
     Reading input from standard input

     Current dimensions of program PWSCF are:
     Max number of different atomic species (ntypx) = 10
     Max number of k-points (npk) =  40000
     Max angular momentum in pseudopotentials (lmaxx) =  3
               file Mn.pbe-spn-kjpaw_psl.0.3.1.UPF: wavefunction(s)  3P 3D renormalized
               file Mn.pbe-spn-kjpaw_psl.0.3.1.UPF: wavefunction(s)  3P 3D renormalized
               file Au.pbe-dn-kjpaw_psl.0.1.UPF: wavefunction(s)  6S 6P 5D renormalized

     bravais-lattice index     =            0
     lattice parameter (alat)  =       6.4153  a.u.
     unit-cell volume          =    2724.7774 (a.u.)^3
     number of atoms/cell      =           24
     number of atomic types    =            3
     number of electrons       =       296.00
     number of Kohn-Sham states=          178
     kinetic-energy cutoff     =      45.0000  Ry
     charge density cutoff     =     400.0000  Ry
     convergence threshold     =      1.0E-06
     mixing beta               =       0.1000
     number of iterations used =            8  plain     mixing
     Exchange-correlation      = SLA PW PBX PBC ( 1  4  3  4 0 0)

     celldm(1)=   6.415315  celldm(2)=   0.000000  celldm(3)=   0.000000
     celldm(4)=   0.000000  celldm(5)=   0.000000  celldm(6)=   0.000000

     crystal axes: (cart. coord. in units of alat)
               a(1) = (   1.000000   0.000000   0.000000 )
               a(2) = (   0.000000   1.000000   0.000000 )
               a(3) = (   0.000000   0.000000  10.319937 )

     reciprocal axes: (cart. coord. in units 2 pi/alat)
               b(1) = (  1.000000  0.000000  0.000000 )
               b(2) = (  0.000000  1.000000  0.000000 )
               b(3) = (  0.000000  0.000000  0.096900 )

     PseudoPot. # 1 for Mn read from file:
     ./pseudo/Mn.pbe-spn-kjpaw_psl.0.3.1.UPF
     MD5 check sum: 7b43a3fb0e93e198b8dd8488d8cf503e
     Pseudo is Projector augmented-wave + core cor, Zval = 15.0
     Generated using "atomic" code by A. Dal Corso v.5.0.99 svn rev. 10869
     Shape of augmentation charge: PSQ
     Using radial grid of 1187 points,  6 beta functions with:
                l(1) =   0
                l(2) =   0
                l(3) =   1
                l(4) =   1
                l(5) =   2
                l(6) =   2
     Q(r) pseudized with 0 coefficients

     PseudoPot. # 2 for Mn read from file:
     ./pseudo/Mn.pbe-spn-kjpaw_psl.0.3.1.UPF
     MD5 check sum: 7b43a3fb0e93e198b8dd8488d8cf503e
     Pseudo is Projector augmented-wave + core cor, Zval = 15.0
     Generated using "atomic" code by A. Dal Corso v.5.0.99 svn rev. 10869
     Shape of augmentation charge: PSQ
     Using radial grid of 1187 points,  6 beta functions with:
                l(1) =   0
                l(2) =   0
                l(3) =   1
                l(4) =   1
                l(5) =   2
                l(6) =   2
     Q(r) pseudized with 0 coefficients

     PseudoPot. # 3 for Au read from file:
     ./pseudo/Au.pbe-dn-kjpaw_psl.0.1.UPF
     MD5 check sum: be11e2e8e535ebe2b3ccfb4f88f554cb
     Pseudo is Projector augmented-wave + core cor, Zval = 11.0
     Generated using "atomic" code by A. Dal Corso v.5.0.2 svn rev. 9415
     Shape of augmentation charge: PSQ
     Using radial grid of 1279 points,  6 beta functions with:
                l(1) =   0
                l(2) =   0
                l(3) =   1
                l(4) =   1
                l(5) =   2
                l(6) =   2
     Q(r) pseudized with 0 coefficients

     atomic species   valence    mass     pseudopotential
        Mn1           15.00    54.93800     Mn( 1.00)
        Mn2           15.00    54.93800     Mn( 1.00)
        Au            11.00   196.96600     Au( 1.00)

     Starting magnetic structure
     atomic species   magnetization
        Mn1          0.800
        Mn2         -0.800
        Au           0.000

     Full LDA+U calculation (l_max = 2) with parameters (eV):
     U(  1) =   3.1200   J(  1) =   0.7000   B(  1) =   0.0803
     U(  2) =   3.1200   J(  2) =   0.7000   B(  2) =   0.0803

      8 Sym. Ops. (no inversion) found
          (note:  8 additional sym.ops. were found but ignored
           their fractional translations are incommensurate with FFT grid)

   Cartesian axes

     site n.     atom                  positions (alat units)
         1           Mn1 tau(   1) = (   0.0000000   0.0000000   0.0000000  )
         2           Mn1 tau(   2) = (   0.5000000   0.5000000   1.2899921  )
         3           Mn2 tau(   3) = (   0.0000000   0.0000000   2.5799843  )
         4           Mn1 tau(   4) = (   0.5000000   0.5000000   3.8699764  )
         5           Mn2 tau(   5) = (   0.0000000   0.0000000   5.1599686  )
         6           Mn2 tau(   6) = (   0.5000000   0.5000000   6.4499607  )
         7           Mn1 tau(   7) = (   0.0000000   0.0000000   7.7399528  )
         8           Mn2 tau(   8) = (   0.5000000   0.5000000   9.0299450  )
         9           Au  tau(   9) = (   0.5000000   0.5000000   0.4127975  )
        10           Au  tau(  10) = (   0.0000000   0.0000000   0.8771947  )
        11           Au  tau(  11) = (   0.0000000   0.0000000   1.7027896  )
        12           Au  tau(  12) = (   0.5000000   0.5000000   2.1671868  )
        13           Au  tau(  13) = (   0.5000000   0.5000000   2.9927818  )
        14           Au  tau(  14) = (   0.0000000   0.0000000   3.4571789  )
        15           Au  tau(  15) = (   0.0000000   0.0000000   4.2827739  )
        16           Au  tau(  16) = (   0.5000000   0.5000000   4.7471711  )
        17           Au  tau(  17) = (   0.5000000   0.5000000   5.5727660  )
        18           Au  tau(  18) = (   0.0000000   0.0000000   6.0371632  )
        19           Au  tau(  19) = (   0.0000000   0.0000000   6.8627582  )
        20           Au  tau(  20) = (   0.5000000   0.5000000   7.3271553  )
        21           Au  tau(  21) = (   0.5000000   0.5000000   8.1527503  )
        22           Au  tau(  22) = (   0.0000000   0.0000000   8.6171475  )
        23           Au  tau(  23) = (   0.0000000   0.0000000   9.4427424  )
        24           Au  tau(  24) = (   0.5000000   0.5000000   9.9071396  )

     number of k points=    45 (tetrahedron method)
                       cart. coord. in units 2pi/alat
        k(    1) = (   0.0000000   0.0000000   0.0000000), wk =   0.0039062
        k(    2) = (   0.0000000   0.0000000   0.0242250), wk =   0.0078125
        k(    3) = (   0.0000000   0.0000000  -0.0484499), wk =   0.0039062
        k(    4) = (   0.0000000   0.1250000   0.0000000), wk =   0.0156250
        k(    5) = (   0.0000000   0.1250000   0.0242250), wk =   0.0312500
        k(    6) = (   0.0000000   0.1250000  -0.0484499), wk =   0.0156250
        k(    7) = (   0.0000000   0.2500000   0.0000000), wk =   0.0156250
        k(    8) = (   0.0000000   0.2500000   0.0242250), wk =   0.0312500
        k(    9) = (   0.0000000   0.2500000  -0.0484499), wk =   0.0156250
        k(   10) = (   0.0000000   0.3750000   0.0000000), wk =   0.0156250
        k(   11) = (   0.0000000   0.3750000   0.0242250), wk =   0.0312500
        k(   12) = (   0.0000000   0.3750000  -0.0484499), wk =   0.0156250
        k(   13) = (   0.0000000  -0.5000000   0.0000000), wk =   0.0078125
        k(   14) = (   0.0000000  -0.5000000   0.0242250), wk =   0.0156250
        k(   15) = (   0.0000000  -0.5000000  -0.0484499), wk =   0.0078125
        k(   16) = (   0.1250000   0.1250000   0.0000000), wk =   0.0156250
        k(   17) = (   0.1250000   0.1250000   0.0242250), wk =   0.0312500
        k(   18) = (   0.1250000   0.1250000  -0.0484499), wk =   0.0156250
        k(   19) = (   0.1250000   0.2500000   0.0000000), wk =   0.0312500
        k(   20) = (   0.1250000   0.2500000   0.0242250), wk =   0.0625000
        k(   21) = (   0.1250000   0.2500000  -0.0484499), wk =   0.0312500
        k(   22) = (   0.1250000   0.3750000   0.0000000), wk =   0.0312500
        k(   23) = (   0.1250000   0.3750000   0.0242250), wk =   0.0625000
        k(   24) = (   0.1250000   0.3750000  -0.0484499), wk =   0.0312500
        k(   25) = (   0.1250000  -0.5000000   0.0000000), wk =   0.0156250
        k(   26) = (   0.1250000  -0.5000000   0.0242250), wk =   0.0312500
        k(   27) = (   0.1250000  -0.5000000  -0.0484499), wk =   0.0156250
        k(   28) = (   0.2500000   0.2500000   0.0000000), wk =   0.0156250
        k(   29) = (   0.2500000   0.2500000   0.0242250), wk =   0.0312500
        k(   30) = (   0.2500000   0.2500000  -0.0484499), wk =   0.0156250
        k(   31) = (   0.2500000   0.3750000   0.0000000), wk =   0.0312500
        k(   32) = (   0.2500000   0.3750000   0.0242250), wk =   0.0625000
        k(   33) = (   0.2500000   0.3750000  -0.0484499), wk =   0.0312500
        k(   34) = (   0.2500000  -0.5000000   0.0000000), wk =   0.0156250
        k(   35) = (   0.2500000  -0.5000000   0.0242250), wk =   0.0312500
        k(   36) = (   0.2500000  -0.5000000  -0.0484499), wk =   0.0156250
        k(   37) = (   0.3750000   0.3750000   0.0000000), wk =   0.0156250
        k(   38) = (   0.3750000   0.3750000   0.0242250), wk =   0.0312500
        k(   39) = (   0.3750000   0.3750000  -0.0484499), wk =   0.0156250
        k(   40) = (   0.3750000  -0.5000000   0.0000000), wk =   0.0156250
        k(   41) = (   0.3750000  -0.5000000   0.0242250), wk =   0.0312500
        k(   42) = (   0.3750000  -0.5000000  -0.0484499), wk =   0.0156250
        k(   43) = (  -0.5000000  -0.5000000   0.0000000), wk =   0.0039062
        k(   44) = (  -0.5000000  -0.5000000   0.0242250), wk =   0.0078125
        k(   45) = (  -0.5000000  -0.5000000  -0.0484499), wk =   0.0039062

     Check: negative/imaginary core charge=   -0.000006    0.000000

     Initial potential from superposition of free atoms

     starting charge  295.99426, renormalised to  296.00000
     Number of +U iterations with fixed ns =  0
     Starting occupations:
 --- enter write_ns ---
 LDA+U parameters:
U(  1) =   3.1200   J(  1) =   0.7000   B(  1) =   0.0803
U(  2) =   3.1200   J(  2) =   0.7000   B(  2) =   0.0803
atom    1   Tr[ns(na)] (up, down, total) =   5.00000  0.00000  5.00000
   spin  1
    eigenvalues:
  1.000  1.000  1.000  1.000  1.000
    eigenvectors:
  1.000  0.000  0.000  0.000  0.000
  0.000  1.000  0.000  0.000  0.000
  0.000  0.000  1.000  0.000  0.000
  0.000  0.000  0.000  1.000  0.000
  0.000  0.000  0.000  0.000  1.000
    occupations:
  1.000  0.000  0.000  0.000  0.000
  0.000  1.000  0.000  0.000  0.000
  0.000  0.000  1.000  0.000  0.000
  0.000  0.000  0.000  1.000  0.000
  0.000  0.000  0.000  0.000  1.000
   spin  2
    eigenvalues:
  0.000  0.000  0.000  0.000  0.000
    eigenvectors:
  1.000  0.000  0.000  0.000  0.000
  0.000  1.000  0.000  0.000  0.000
  0.000  0.000  1.000  0.000  0.000
  0.000  0.000  0.000  1.000  0.000
  0.000  0.000  0.000  0.000  1.000
    occupations:
  0.000  0.000  0.000  0.000  0.000
  0.000  0.000  0.000  0.000  0.000
[...]
   spin  1
    eigenvalues:
  0.053  0.073  0.080  0.080  0.124
    eigenvectors:
  0.000  1.000  0.000  0.000  0.000
  0.000  0.000  0.413  0.587  0.000
  0.000  0.000  0.587  0.413  0.000
  1.000  0.000  0.000  0.000  0.000
  0.000  0.000  0.000  0.000  1.000
    occupations:
  0.073 -0.000 -0.000  0.000  0.000
 -0.000  0.080 -0.000  0.000  0.000
 -0.000 -0.000  0.080  0.000  0.000
  0.000  0.000  0.000  0.053 -0.000
  0.000  0.000  0.000 -0.000  0.124
   spin  2
    eigenvalues:
  1.003  1.003  1.003  1.004  1.004
    eigenvectors:
  0.000  0.000  0.000  1.000  0.000
  0.000  0.257  0.743  0.000  0.000
  0.000  0.743  0.257  0.000  0.000
  0.000  0.000  0.000  0.000  1.000
  1.000  0.000  0.000  0.000  0.000
    occupations:
  1.004 -0.000 -0.000  0.000  0.000
 -0.000  1.003 -0.000  0.000  0.000
 -0.000 -0.000  1.003  0.000  0.000
  0.000  0.000  0.000  1.004 -0.000
  0.000  0.000  0.000 -0.000  1.003
atomic mag. moment =    -4.606529
N of occupied +U levels =   43.415582
 --- exit write_ns ---

     total energy              =  -14687.28211861 Ry
     Harris-Foulkes estimate   =  -14685.82235625 Ry
     estimated scf accuracy    <      11.56500767 Ry

     total magnetization       =     0.00 Bohr mag/cell
     absolute magnetization    =    41.59 Bohr mag/cell

     iteration #  2     ecut=    45.00 Ry     beta= 0.10
     Davidson diagonalization with overlap
     ethr =  3.91E-03,  avg # of iterations =  1.0

[...]

     total energy              =  -14693.99934318 Ry
     Harris-Foulkes estimate   =  -14693.99934259 Ry
     estimated scf accuracy    <       0.00000501 Ry

[...]

     iteration # 30     ecut=    45.00 Ry     beta= 0.10
     Davidson diagonalization with overlap
     ethr =  5.39E-10,  avg # of iterations =  1.3

     Magnetic moment per site:
     atom:    1    charge:   13.5455    magn:    4.2490    constr:    0.0000
     atom:    2    charge:   13.5457    magn:    4.2491    constr:    0.0000
     atom:    3    charge:   13.5443    magn:   -4.2578    constr:    0.0000
     atom:    4    charge:   13.5445    magn:    4.2578    constr:    0.0000
     atom:    5    charge:   13.5455    magn:   -4.2492    constr:    0.0000
     atom:    6    charge:   13.5458    magn:   -4.2489    constr:    0.0000
     atom:    7    charge:   13.5444    magn:    4.2579    constr:    0.0000
     atom:    8    charge:   13.5445    magn:   -4.2578    constr:    0.0000
     atom:    9    charge:    9.1239    magn:    0.0389    constr:    0.0000
     atom:   10    charge:    9.1241    magn:    0.0389    constr:    0.0000
     atom:   11    charge:    9.1246    magn:    0.0429    constr:    0.0000
     atom:   12    charge:    9.1234    magn:   -0.0384    constr:    0.0000
     atom:   13    charge:    9.1243    magn:   -0.0396    constr:    0.0000
     atom:   14    charge:    9.1245    magn:    0.0395    constr:    0.0000
     atom:   15    charge:    9.1235    magn:    0.0384    constr:    0.0000
     atom:   16    charge:    9.1245    magn:   -0.0429    constr:    0.0000
     atom:   17    charge:    9.1240    magn:   -0.0389    constr:    0.0000
     atom:   18    charge:    9.1240    magn:   -0.0389    constr:    0.0000
     atom:   19    charge:    9.1246    magn:   -0.0428    constr:    0.0000
     atom:   20    charge:    9.1235    magn:    0.0387    constr:    0.0000
     atom:   21    charge:    9.1244    magn:    0.0398    constr:    0.0000
     atom:   22    charge:    9.1246    magn:   -0.0397    constr:    0.0000
     atom:   23    charge:    9.1236    magn:   -0.0387    constr:    0.0000
     atom:   24    charge:    9.1245    magn:    0.0428    constr:    0.0000

     End of self-consistent calculation
 --- enter write_ns ---
 LDA+U parameters:
U(  1) =   3.1200   J(  1) =   0.7000   B(  1) =   0.0803
U(  2) =   3.1200   J(  2) =   0.7000   B(  2) =   0.0803
atom    1   Tr[ns(na)] (up, down, total) =   4.97364  0.72584  5.69947
   spin  1
    eigenvalues:
  0.985  0.994  0.994  0.997  1.002
    eigenvectors:
  0.000  0.000  0.000  1.000  0.000
  0.000  0.307  0.693  0.000  0.000
  0.000  0.693  0.307  0.000  0.000
  0.000  0.000  0.000  0.000  1.000
  1.000  0.000  0.000  0.000  0.000
    occupations:
  0.997 -0.000 -0.000  0.000  0.000
 -0.000  0.994 -0.000  0.000  0.000
 -0.000 -0.000  0.994  0.000  0.000
  0.000  0.000  0.000  1.002 -0.000
  0.000  0.000  0.000 -0.000  0.985
   spin  2
    eigenvalues:
  0.066  0.124  0.144  0.144  0.249
    eigenvectors:
  0.000  1.000  0.000  0.000  0.000
  0.000  0.000  0.306  0.694  0.000
  0.000  0.000  0.694  0.306  0.000
  1.000  0.000  0.000  0.000  0.000
  0.000  0.000  0.000  0.000  1.000
    occupations:
  0.124 -0.000 -0.000  0.000  0.000
 -0.000  0.144 -0.000  0.000  0.000
 -0.000 -0.000  0.144  0.000  0.000
  0.000  0.000  0.000  0.066 -0.000
  0.000  0.000  0.000 -0.000  0.249
atomic mag. moment =     4.247797
atom    2   Tr[ns(na)] (up, down, total) =   4.97365  0.72578  5.69943
   spin  1
    eigenvalues:
  0.985  0.994  0.994  0.997  1.002
    eigenvectors:
  0.000  0.000  0.000  1.000  0.000
  0.000  0.326  0.674  0.000  0.000
  0.000  0.674  0.326  0.000  0.000
  0.000  0.000  0.000  0.000  1.000
  1.000  0.000  0.000  0.000  0.000
    occupations:
  0.997 -0.000 -0.000  0.000  0.000
 -0.000  0.994 -0.000  0.000  0.000
 -0.000 -0.000  0.994  0.000  0.000
  0.000  0.000  0.000  1.002 -0.000
  0.000  0.000  0.000 -0.000  0.985
   spin  2
    eigenvalues:
  0.066  0.124  0.144  0.144  0.249
    eigenvectors:
  0.000  1.000  0.000  0.000  0.000
  0.000  0.000  0.388  0.612  0.000
  0.000  0.000  0.612  0.388  0.000
  1.000  0.000  0.000  0.000  0.000
  0.000  0.000  0.000  0.000  1.000
    occupations:
  0.124 -0.000 -0.000  0.000  0.000
 -0.000  0.144 -0.000  0.000  0.000
 -0.000 -0.000  0.144  0.000  0.000
  0.000  0.000  0.000  0.066 -0.000
  0.000  0.000  0.000 -0.000  0.249
atomic mag. moment =     4.247872
atom    3   Tr[ns(na)] (up, down, total) =   0.71961  4.97224  5.69185
   spin  1
    eigenvalues:
  0.066  0.119  0.146  0.146  0.243
    eigenvectors:
  0.000  1.000  0.000  0.000  0.000
  0.000  0.000  0.356  0.644  0.000
  0.000  0.000  0.644  0.356  0.000
  1.000  0.000  0.000  0.000  0.000
  0.000  0.000  0.000  0.000  1.000
    occupations:
  0.119 -0.000 -0.000  0.000  0.000
 -0.000  0.146 -0.000  0.000  0.000
 -0.000 -0.000  0.146  0.000  0.000
  0.000  0.000  0.000  0.066 -0.000
  0.000  0.000  0.000 -0.000  0.243
   spin  2
    eigenvalues:
  0.985  0.994  0.994  0.997  1.003
    eigenvectors:
  0.000  0.000  0.000  1.000  0.000
  0.000  0.289  0.711  0.000  0.000
  0.000  0.711  0.289  0.000  0.000
  0.000  0.000  0.000  0.000  1.000
  1.000  0.000  0.000  0.000  0.000
    occupations:
  0.997 -0.000 -0.000  0.000  0.000
 -0.000  0.994 -0.000  0.000  0.000
 -0.000 -0.000  0.994  0.000  0.000
  0.000  0.000  0.000  1.003 -0.000
  0.000  0.000  0.000 -0.000  0.985
atomic mag. moment =    -4.252625
atom    4   Tr[ns(na)] (up, down, total) =   4.97223  0.71966  5.69190
   spin  1
    eigenvalues:
  0.985  0.994  0.994  0.997  1.003
    eigenvectors:
  0.000  0.000  0.000  1.000  0.000
  0.000  0.247  0.753  0.000  0.000
  0.000  0.753  0.247  0.000  0.000
  0.000  0.000  0.000  0.000  1.000
  1.000  0.000  0.000  0.000  0.000
    occupations:
  0.997 -0.000 -0.000  0.000  0.000
 -0.000  0.994 -0.000  0.000  0.000
 -0.000 -0.000  0.994  0.000  0.000
  0.000  0.000  0.000  1.003 -0.000
  0.000  0.000  0.000 -0.000  0.985
   spin  2
    eigenvalues:
  0.066  0.119  0.146  0.146  0.243
    eigenvectors:
  0.000  1.000  0.000  0.000  0.000
  0.000  0.000  0.281  0.719  0.000
  0.000  0.000  0.719  0.281  0.000
  1.000  0.000  0.000  0.000  0.000
  0.000  0.000  0.000  0.000  1.000
    occupations:
  0.119 -0.000 -0.000  0.000  0.000
 -0.000  0.146 -0.000  0.000  0.000
 -0.000 -0.000  0.146  0.000  0.000
  0.000  0.000  0.000  0.066 -0.000
  0.000  0.000  0.000 -0.000  0.243
atomic mag. moment =     4.252567
atom    5   Tr[ns(na)] (up, down, total) =   0.72567  4.97365  5.69932
   spin  1
    eigenvalues:
  0.066  0.124  0.144  0.144  0.249
    eigenvectors:
  0.000  1.000  0.000  0.000  0.000
  0.000  0.000  0.362  0.638  0.000
  0.000  0.000  0.638  0.362  0.000
  1.000  0.000  0.000  0.000  0.000
  0.000  0.000  0.000  0.000  1.000
    occupations:
  0.124 -0.000 -0.000  0.000  0.000
 -0.000  0.144 -0.000  0.000  0.000
 -0.000 -0.000  0.144  0.000  0.000
  0.000  0.000  0.000  0.066 -0.000
  0.000  0.000  0.000 -0.000  0.249
   spin  2
    eigenvalues:
  0.985  0.994  0.994  0.997  1.002
    eigenvectors:
  0.000  0.000  0.000  1.000  0.000
  0.000  0.361  0.639  0.000  0.000
  0.000  0.639  0.361  0.000  0.000
  0.000  0.000  0.000  0.000  1.000
  1.000  0.000  0.000  0.000  0.000
    occupations:
  0.997 -0.000 -0.000  0.000  0.000
 -0.000  0.994 -0.000  0.000  0.000
 -0.000 -0.000  0.994  0.000  0.000
  0.000  0.000  0.000  1.002 -0.000
  0.000  0.000  0.000 -0.000  0.985
atomic mag. moment =    -4.247978
atom    6   Tr[ns(na)] (up, down, total) =   0.72603  4.97364  5.69967
   spin  1
    eigenvalues:
  0.066  0.124  0.144  0.144  0.249
    eigenvectors:
  0.000  1.000  0.000  0.000  0.000
  0.000  0.000  0.423  0.577  0.000
  0.000  0.000  0.577  0.423  0.000
  1.000  0.000  0.000  0.000  0.000
  0.000  0.000  0.000  0.000  1.000
    occupations:
  0.124 -0.000 -0.000  0.000  0.000
 -0.000  0.144 -0.000  0.000  0.000
 -0.000 -0.000  0.144  0.000  0.000
  0.000  0.000  0.000  0.066 -0.000
  0.000  0.000  0.000 -0.000  0.249
   spin  2
    eigenvalues:
  0.985  0.994  0.994  0.997  1.002
    eigenvectors:
  0.000  0.000  0.000  1.000  0.000
  0.000  0.266  0.734  0.000  0.000
  0.000  0.734  0.266  0.000  0.000
  0.000  0.000  0.000  0.000  1.000
  1.000  0.000  0.000  0.000  0.000
    occupations:
  0.997 -0.000 -0.000  0.000  0.000
 -0.000  0.994 -0.000  0.000  0.000
 -0.000 -0.000  0.994  0.000  0.000
  0.000  0.000  0.000  1.002 -0.000
  0.000  0.000  0.000 -0.000  0.985
atomic mag. moment =    -4.247615
atom    7   Tr[ns(na)] (up, down, total) =   4.97232  0.71973  5.69205
   spin  1
    eigenvalues:
  0.985  0.994  0.994  0.997  1.003
    eigenvectors:
  0.000  0.000  0.000  1.000  0.000
  0.000  0.280  0.720  0.000  0.000
  0.000  0.720  0.280  0.000  0.000
  0.000  0.000  0.000  0.000  1.000
  1.000  0.000  0.000  0.000  0.000
    occupations:
  0.997 -0.000 -0.000  0.000  0.000
 -0.000  0.994 -0.000  0.000  0.000
 -0.000 -0.000  0.994  0.000  0.000
  0.000  0.000  0.000  1.003 -0.000
  0.000  0.000  0.000 -0.000  0.985
   spin  2
    eigenvalues:
  0.066  0.119  0.146  0.146  0.243
    eigenvectors:
  0.000  1.000  0.000  0.000  0.000
  0.000  0.000  0.293  0.707  0.000
  0.000  0.000  0.707  0.293  0.000
  1.000  0.000  0.000  0.000  0.000
  0.000  0.000  0.000  0.000  1.000
    occupations:
  0.119 -0.000 -0.000  0.000  0.000
 -0.000  0.146 -0.000  0.000  0.000
 -0.000 -0.000  0.146  0.000  0.000
  0.000  0.000  0.000  0.066 -0.000
  0.000  0.000  0.000 -0.000  0.243
atomic mag. moment =     4.252600
atom    8   Tr[ns(na)] (up, down, total) =   0.71973  4.97232  5.69205
   spin  1
    eigenvalues:
  0.066  0.119  0.146  0.146  0.243
    eigenvectors:
  0.000  1.000  0.000  0.000  0.000
  0.000  0.000  0.264  0.736  0.000
  0.000  0.000  0.736  0.264  0.000
  1.000  0.000  0.000  0.000  0.000
  0.000  0.000  0.000  0.000  1.000
    occupations:
  0.119 -0.000 -0.000  0.000  0.000
 -0.000  0.146 -0.000  0.000  0.000
 -0.000 -0.000  0.146  0.000  0.000
  0.000  0.000  0.000  0.066 -0.000
  0.000  0.000  0.000 -0.000  0.243
   spin  2
    eigenvalues:
  0.985  0.994  0.994  0.997  1.003
    eigenvectors:
  0.000  0.000  0.000  1.000  0.000
  0.000  0.314  0.686  0.000  0.000
  0.000  0.686  0.314  0.000  0.000
  0.000  0.000  0.000  0.000  1.000
  1.000  0.000  0.000  0.000  0.000
    occupations:
  0.997 -0.000 -0.000  0.000  0.000
 -0.000  0.994 -0.000  0.000  0.000
 -0.000 -0.000  0.994  0.000  0.000
  0.000  0.000  0.000  1.003 -0.000
  0.000  0.000  0.000 -0.000  0.985
atomic mag. moment =    -4.252582
N of occupied +U levels =   45.565740
 --- exit write_ns ---

 ------ SPIN UP ------------

          k = 0.0000 0.0000 0.0000 ( 13925 PWs)   bands (ev):

   -66.7971 -66.7953 -66.7381 -66.7374 -62.1889 -62.1871 -62.1343 -62.1340
   -35.5624 -35.5604 -35.5146 -35.5146 -35.5129 -35.5129 -35.5084 -35.5079
   -35.4545 -35.4545 -35.4536 -35.4536 -31.0099 -31.0079 -31.0079 -31.0079
   -31.0063 -31.0063 -30.9594 -30.9591 -30.9529 -30.9529 -30.9526 -30.9526
     5.7783   5.9218   5.9454   6.3706   6.4060   7.0541   7.0630   7.6215
     8.3487   8.4236   8.4370   8.5129   8.5141   8.5569   8.5737   8.7365
     8.8213   8.8491   8.9585   9.0868   9.1455   9.2372   9.2648   9.2800
     9.3075   9.3799   9.4636   9.5398   9.8516   9.9101   9.9267   9.9911
     9.9925  10.1289  10.1363  10.1363  10.1479  10.1495  10.1677  10.1766
    10.1768  10.1768  10.2042  10.2042  10.3075  10.3470  10.3470  10.3575
    10.3575  10.5192  10.5715  10.5865  10.5865  10.5927  10.5978  10.5978
    10.6038  10.6038  10.6108  10.6197  10.6197  10.6250  10.6250  10.6756
    10.7090  10.7090  10.9447  10.9447  10.9539  11.0537  11.0537  11.0857
    11.1363  11.1551  11.2602  11.2894  11.3263  11.3276  11.4224  11.4224
    11.4244  11.4244  11.4441  11.4625  11.6697  11.7348  11.7588  11.8121
    11.8121  11.9157  11.9171  11.9607  11.9607  12.0449  12.1137  12.1608
    12.1807  12.2535  12.3353  12.3353  12.3371  12.3371  12.5886  12.5886
    12.6799  12.8189  12.8203  12.8292  12.9996  13.0014  13.0342  13.6522
    13.9201  15.0329  15.0683  15.9291  16.8126  16.8126  16.9117  16.9117
    16.9139  16.9139  16.9622  16.9636  16.9826  17.0371  17.1151  17.1151
    17.1586  17.1597  17.1651  17.2181  17.5556  17.5904  17.6151  17.6309
    18.6011  19.6822  19.7005  20.1032  20.1032  20.4896  20.4896  20.5125
    20.5125  21.4961

[...]

          k =-0.5000-0.5000 0.0000 ( 13964 PWs)   bands (ev):

[...]

 ------ SPIN DOWN ----------

[...]

          k = 0.3750-0.5000-0.0484 ( 13940 PWs)   bands (ev):

[...]

          k =-0.5000-0.5000-0.0484 ( 13992 PWs)   bands (ev):

   -66.7957 -66.7939 -66.7368 -66.7362 -62.1877 -62.1860 -62.1329 -62.1324
   -35.5605 -35.5587 -35.5251 -35.5251 -35.5234 -35.5234 -35.5067 -35.5064
   -35.4652 -35.4652 -35.4644 -35.4644 -31.0215 -31.0215 -31.0200 -31.0200
   -31.0075 -31.0056 -30.9664 -30.9664 -30.9659 -30.9659 -30.9570 -30.9563
     8.1024   8.1028   8.2158   8.2166   8.2913   8.2914   8.5805   8.5805
     8.8704   8.8705   9.0518   9.0523   9.2700   9.2700   9.2755   9.2755
     9.3174   9.3176   9.3562   9.3562   9.3658   9.3666   9.3724   9.3724
     9.5522   9.5522   9.5548   9.5548   9.8570   9.8570   9.8661   9.8661
     9.8938   9.8947   9.9305   9.9305   9.9622   9.9622   9.9635   9.9635
    10.0292  10.0304  10.0728  10.0728  10.2785  10.2785  10.3226  10.3226
    10.5591  10.5598  10.6628  10.6631  10.7424  10.7424  10.9781  10.9781
    11.1390  11.1392  11.1868  11.1882  11.2811  11.2823  11.3601  11.3601
    11.4208  11.4223  11.4280  11.4281  11.4790  11.4797  11.7708  11.7708
    11.9583  11.9597  11.9841  11.9854  11.9867  11.9871  12.0127  12.0131
    12.0486  12.0500  12.0614  12.0614  12.0768  12.0781  12.0810  12.0813
    12.1083  12.1086  12.1820  12.1834  12.2293  12.2297  12.2962  12.2962
    12.3725  12.3725  12.3859  12.3867  13.4006  13.4014  13.4314  13.4315
    13.9180  13.9180  14.0024  14.0024  14.2511  14.2511  14.6047  14.6047
    15.2320  15.2320  15.9277  15.9277  15.9533  15.9533  16.6210  16.6223
    16.6836  16.6836  16.7177  16.7186  16.8857  16.8866  17.1331  17.1342
    17.4852  17.4852  17.8135  17.8141  17.8205  17.8214  17.8342  17.8342
    18.0654  18.0668  18.1038  18.1040  18.1192  18.1201  18.4333  18.4341
    18.6367  18.6367

     the Fermi energy is    15.3022 ev

!    total energy              =  -14693.99934603 Ry
     Harris-Foulkes estimate   =  -14693.99934328 Ry
     estimated scf accuracy    <       0.00000050 Ry

     total all-electron energy =   -626921.595068 Ry

     The total energy is the sum of the following terms:

     one-electron contribution =    -714.32708212 Ry
     hartree contribution      =     656.42461339 Ry
     xc contribution           =    -737.89669674 Ry
     ewald contribution        =   -2196.78933708 Ry
     Hubbard energy            =       0.44337131 Ry
     one-center paw contrib.   =  -11701.85421479 Ry

     total magnetization       =     0.00 Bohr mag/cell
     absolute magnetization    =    37.38 Bohr mag/cell

     convergence has been achieved in  30 iterations

     Writing output data file mnau2.save/

     General routines

     Parallel routines

     Hubbard U routines

      14h

   This run was terminated on:  21: 0:44   8Apr2019

   JOB DONE.