     Program PWSCF v.6.3MaX starts on  8Apr2019 at 21: 0:47

     R & G space division:  proc/nbgrp/npool/nimage =      32
     Waiting for input...
     Reading input from standard input

     Current dimensions of program PWSCF are:
     Max number of different atomic species (ntypx) = 10
     Max number of k-points (npk) =  40000
     Max angular momentum in pseudopotentials (lmaxx) =  3
               file Mn.pbe-spn-kjpaw_psl.0.3.1.UPF: wavefunction(s)  3P 3D renormalized
               file Mn.pbe-spn-kjpaw_psl.0.3.1.UPF: wavefunction(s)  3P 3D renormalized
               file Au.pbe-dn-kjpaw_psl.0.1.UPF: wavefunction(s)  6S 6P 5D renormalized

     Found symmetry operation: I + (  0.0000  0.0000 -0.5000)
     This is a supercell, fractional translations are disabled

     bravais-lattice index     =            0
     lattice parameter (alat)  =       6.4153  a.u.
     unit-cell volume          =    2724.7774 (a.u.)^3
     number of atoms/cell      =           24
     number of atomic types    =            3
     number of electrons       =       296.00
     number of Kohn-Sham states=          178
     kinetic-energy cutoff     =      45.0000  Ry
     charge density cutoff     =     400.0000  Ry
     convergence threshold     =      1.0E-06
     mixing beta               =       0.1000
     number of iterations used =            8  plain     mixing
     Exchange-correlation      = SLA PW PBX PBC ( 1  4  3  4 0 0)

     celldm(1)=   6.415315  celldm(2)=   0.000000  celldm(3)=   0.000000
     celldm(4)=   0.000000  celldm(5)=   0.000000  celldm(6)=   0.000000

     crystal axes: (cart. coord. in units of alat)
               a(1) = (   1.000000   0.000000   0.000000 )
               a(2) = (   0.000000   1.000000   0.000000 )
               a(3) = (   0.000000   0.000000  10.319937 )

     reciprocal axes: (cart. coord. in units 2 pi/alat)
               b(1) = (  1.000000  0.000000  0.000000 )
               b(2) = (  0.000000  1.000000  0.000000 )
               b(3) = (  0.000000  0.000000  0.096900 )

     PseudoPot. # 1 for Mn read from file:
     ./pseudo/Mn.pbe-spn-kjpaw_psl.0.3.1.UPF
     MD5 check sum: 7b43a3fb0e93e198b8dd8488d8cf503e
     Pseudo is Projector augmented-wave + core cor, Zval = 15.0
     Generated using "atomic" code by A. Dal Corso v.5.0.99 svn rev. 10869
     Shape of augmentation charge: PSQ
     Using radial grid of 1187 points,  6 beta functions with:
                l(1) =   0
                l(2) =   0
                l(3) =   1
                l(4) =   1
                l(5) =   2
                l(6) =   2
     Q(r) pseudized with 0 coefficients

     PseudoPot. # 2 for Mn read from file:
     ./pseudo/Mn.pbe-spn-kjpaw_psl.0.3.1.UPF
     MD5 check sum: 7b43a3fb0e93e198b8dd8488d8cf503e
     Pseudo is Projector augmented-wave + core cor, Zval = 15.0
     Generated using "atomic" code by A. Dal Corso v.5.0.99 svn rev. 10869
     Shape of augmentation charge: PSQ
     Using radial grid of 1187 points,  6 beta functions with:
                l(1) =   0
                l(2) =   0
                l(3) =   1
                l(4) =   1
                l(5) =   2
                l(6) =   2
     Q(r) pseudized with 0 coefficients

     PseudoPot. # 3 for Au read from file:
     ./pseudo/Au.pbe-dn-kjpaw_psl.0.1.UPF
     MD5 check sum: be11e2e8e535ebe2b3ccfb4f88f554cb
     Pseudo is Projector augmented-wave + core cor, Zval = 11.0
     Generated using "atomic" code by A. Dal Corso v.5.0.2 svn rev. 9415
     Shape of augmentation charge: PSQ
     Using radial grid of 1279 points,  6 beta functions with:
                l(1) =   0
                l(2) =   0
                l(3) =   1
                l(4) =   1
                l(5) =   2
                l(6) =   2
     Q(r) pseudized with 0 coefficients

     atomic species   valence    mass     pseudopotential
        Mn1           15.00    54.93800     Mn( 1.00)
        Mn2           15.00    54.93800     Mn( 1.00)
        Au            11.00   196.96600     Au( 1.00)

     Starting magnetic structure
     atomic species   magnetization
        Mn1          0.800
        Mn2         -0.800
        Au           0.000

     Full LDA+U calculation (l_max = 2) with parameters (eV):
     U(  1) =   3.1200   J(  1) =   0.7000   B(  1) =   0.0803
     U(  2) =   3.1200   J(  2) =   0.7000   B(  2) =   0.0803

      8 Sym. Ops. (no inversion) found

   Cartesian axes

     site n.     atom                  positions (alat units)
         1           Mn1 tau(   1) = (   0.0000000   0.0000000   0.0000000  )
         2           Mn1 tau(   2) = (   0.5000000   0.5000000   1.2899921  )
         3           Mn2 tau(   3) = (   0.0000000   0.0000000   2.5799843  )
         4           Mn2 tau(   4) = (   0.5000000   0.5000000   3.8699764  )
         5           Mn1 tau(   5) = (   0.0000000   0.0000000   5.1599686  )
         6           Mn1 tau(   6) = (   0.5000000   0.5000000   6.4499607  )
         7           Mn2 tau(   7) = (   0.0000000   0.0000000   7.7399528  )
         8           Mn2 tau(   8) = (   0.5000000   0.5000000   9.0299450  )
         9           Au  tau(   9) = (   0.5000000   0.5000000   0.4127975  )
        10           Au  tau(  10) = (   0.0000000   0.0000000   0.8771947  )
        11           Au  tau(  11) = (   0.0000000   0.0000000   1.7027896  )
        12           Au  tau(  12) = (   0.5000000   0.5000000   2.1671868  )
        13           Au  tau(  13) = (   0.5000000   0.5000000   2.9927818  )
        14           Au  tau(  14) = (   0.0000000   0.0000000   3.4571789  )
        15           Au  tau(  15) = (   0.0000000   0.0000000   4.2827739  )
        16           Au  tau(  16) = (   0.5000000   0.5000000   4.7471711  )
        17           Au  tau(  17) = (   0.5000000   0.5000000   5.5727660  )
        18           Au  tau(  18) = (   0.0000000   0.0000000   6.0371632  )
        19           Au  tau(  19) = (   0.0000000   0.0000000   6.8627582  )
        20           Au  tau(  20) = (   0.5000000   0.5000000   7.3271553  )
        21           Au  tau(  21) = (   0.5000000   0.5000000   8.1527503  )
        22           Au  tau(  22) = (   0.0000000   0.0000000   8.6171475  )
        23           Au  tau(  23) = (   0.0000000   0.0000000   9.4427424  )
        24           Au  tau(  24) = (   0.5000000   0.5000000   9.9071396  )

     number of k points=    45 (tetrahedron method)
                       cart. coord. in units 2pi/alat
        k(    1) = (   0.0000000   0.0000000   0.0000000), wk =   0.0039062
        k(    2) = (   0.0000000   0.0000000   0.0242250), wk =   0.0078125
        k(    3) = (   0.0000000   0.0000000  -0.0484499), wk =   0.0039062
        k(    4) = (   0.0000000   0.1250000   0.0000000), wk =   0.0156250
        k(    5) = (   0.0000000   0.1250000   0.0242250), wk =   0.0312500
        k(    6) = (   0.0000000   0.1250000  -0.0484499), wk =   0.0156250
        k(    7) = (   0.0000000   0.2500000   0.0000000), wk =   0.0156250
        k(    8) = (   0.0000000   0.2500000   0.0242250), wk =   0.0312500
        k(    9) = (   0.0000000   0.2500000  -0.0484499), wk =   0.0156250
        k(   10) = (   0.0000000   0.3750000   0.0000000), wk =   0.0156250
        k(   11) = (   0.0000000   0.3750000   0.0242250), wk =   0.0312500
        k(   12) = (   0.0000000   0.3750000  -0.0484499), wk =   0.0156250
        k(   13) = (   0.0000000  -0.5000000   0.0000000), wk =   0.0078125
        k(   14) = (   0.0000000  -0.5000000   0.0242250), wk =   0.0156250
        k(   15) = (   0.0000000  -0.5000000  -0.0484499), wk =   0.0078125
        k(   16) = (   0.1250000   0.1250000   0.0000000), wk =   0.0156250
        k(   17) = (   0.1250000   0.1250000   0.0242250), wk =   0.0312500
        k(   18) = (   0.1250000   0.1250000  -0.0484499), wk =   0.0156250
        k(   19) = (   0.1250000   0.2500000   0.0000000), wk =   0.0312500
        k(   20) = (   0.1250000   0.2500000   0.0242250), wk =   0.0625000
        k(   21) = (   0.1250000   0.2500000  -0.0484499), wk =   0.0312500
        k(   22) = (   0.1250000   0.3750000   0.0000000), wk =   0.0312500
        k(   23) = (   0.1250000   0.3750000   0.0242250), wk =   0.0625000
        k(   24) = (   0.1250000   0.3750000  -0.0484499), wk =   0.0312500
        k(   25) = (   0.1250000  -0.5000000   0.0000000), wk =   0.0156250
        k(   26) = (   0.1250000  -0.5000000   0.0242250), wk =   0.0312500
        k(   27) = (   0.1250000  -0.5000000  -0.0484499), wk =   0.0156250
        k(   28) = (   0.2500000   0.2500000   0.0000000), wk =   0.0156250
        k(   29) = (   0.2500000   0.2500000   0.0242250), wk =   0.0312500
        k(   30) = (   0.2500000   0.2500000  -0.0484499), wk =   0.0156250
        k(   31) = (   0.2500000   0.3750000   0.0000000), wk =   0.0312500
        k(   32) = (   0.2500000   0.3750000   0.0242250), wk =   0.0625000
        k(   33) = (   0.2500000   0.3750000  -0.0484499), wk =   0.0312500
        k(   34) = (   0.2500000  -0.5000000   0.0000000), wk =   0.0156250
        k(   35) = (   0.2500000  -0.5000000   0.0242250), wk =   0.0312500
        k(   36) = (   0.2500000  -0.5000000  -0.0484499), wk =   0.0156250
        k(   37) = (   0.3750000   0.3750000   0.0000000), wk =   0.0156250
        k(   38) = (   0.3750000   0.3750000   0.0242250), wk =   0.0312500
        k(   39) = (   0.3750000   0.3750000  -0.0484499), wk =   0.0156250
        k(   40) = (   0.3750000  -0.5000000   0.0000000), wk =   0.0156250
        k(   41) = (   0.3750000  -0.5000000   0.0242250), wk =   0.0312500
        k(   42) = (   0.3750000  -0.5000000  -0.0484499), wk =   0.0156250
        k(   43) = (  -0.5000000  -0.5000000   0.0000000), wk =   0.0039062
        k(   44) = (  -0.5000000  -0.5000000   0.0242250), wk =   0.0078125
        k(   45) = (  -0.5000000  -0.5000000  -0.0484499), wk =   0.0039062

     Check: negative/imaginary core charge=   -0.000006    0.000000

     Initial potential from superposition of free atoms

     starting charge  295.99426, renormalised to  296.00000
     Number of +U iterations with fixed ns =  0
     Starting occupations:
 --- enter write_ns ---
 LDA+U parameters:
U(  1) =   3.1200   J(  1) =   0.7000   B(  1) =   0.0803
U(  2) =   3.1200   J(  2) =   0.7000   B(  2) =   0.0803
atom    1   Tr[ns(na)] (up, down, total) =   5.00000  0.00000  5.00000
   spin  1
    eigenvalues:
  1.000  1.000  1.000  1.000  1.000
    eigenvectors:
  1.000  0.000  0.000  0.000  0.000
  0.000  1.000  0.000  0.000  0.000
  0.000  0.000  1.000  0.000  0.000
  0.000  0.000  0.000  1.000  0.000
  0.000  0.000  0.000  0.000  1.000
    occupations:
  1.000  0.000  0.000  0.000  0.000
  0.000  1.000  0.000  0.000  0.000
  0.000  0.000  1.000  0.000  0.000
  0.000  0.000  0.000  1.000  0.000
  0.000  0.000  0.000  0.000  1.000
   spin  2
    eigenvalues:
  0.000  0.000  0.000  0.000  0.000
    eigenvectors:
  1.000  0.000  0.000  0.000  0.000
  0.000  1.000  0.000  0.000  0.000
  0.000  0.000  1.000  0.000  0.000
  0.000  0.000  0.000  1.000  0.000
  0.000  0.000  0.000  0.000  1.000
    occupations:
  0.000  0.000  0.000  0.000  0.000
  0.000  0.000  0.000  0.000  0.000
[...]
   spin  1
    eigenvalues:
  0.053  0.075  0.082  0.082  0.120
    eigenvectors:
  0.000  1.000  0.000  0.000  0.000
  0.000  0.000  0.294  0.706  0.000
  0.000  0.000  0.706  0.294  0.000
  1.000  0.000  0.000  0.000  0.000
  0.000  0.000  0.000  0.000  1.000
    occupations:
  0.075 -0.000 -0.000  0.000  0.000
 -0.000  0.082 -0.000  0.000  0.000
 -0.000 -0.000  0.082  0.000  0.000
  0.000  0.000  0.000  0.053 -0.000
  0.000  0.000  0.000 -0.000  0.120
   spin  2
    eigenvalues:
  1.003  1.003  1.003  1.004  1.004
    eigenvectors:
  0.000  0.000  0.000  1.000  0.000
  0.000  0.291  0.709  0.000  0.000
  0.000  0.709  0.291  0.000  0.000
  0.000  0.000  0.000  0.000  1.000
  1.000  0.000  0.000  0.000  0.000
    occupations:
  1.004 -0.000 -0.000  0.000  0.000
 -0.000  1.003 -0.000  0.000  0.000
 -0.000 -0.000  1.003  0.000  0.000
  0.000  0.000  0.000  1.004 -0.000
  0.000  0.000  0.000 -0.000  1.003
atomic mag. moment =    -4.606499
N of occupied +U levels =   43.430422
 --- exit write_ns ---

     total energy              =  -14687.27551644 Ry
     Harris-Foulkes estimate   =  -14685.81232914 Ry
     estimated scf accuracy    <      11.56337455 Ry

     total magnetization       =    -0.00 Bohr mag/cell
     absolute magnetization    =    41.48 Bohr mag/cell

     iteration #  2     ecut=    45.00 Ry     beta= 0.10
     Davidson diagonalization with overlap
     ethr =  3.91E-03,  avg # of iterations =  1.0

[...]

     total energy              =  -14694.00904214 Ry
     Harris-Foulkes estimate   =  -14694.00904199 Ry
     estimated scf accuracy    <       0.00000103 Ry

[...]

     iteration # 49     ecut=    45.00 Ry     beta= 0.10
     Davidson diagonalization with overlap
     ethr =  3.47E-10,  avg # of iterations =  1.0

     Magnetic moment per site:
     atom:    1    charge:   13.5492    magn:    4.2284    constr:    0.0000
     atom:    2    charge:   13.5493    magn:    4.2286    constr:    0.0000
     atom:    3    charge:   13.5491    magn:   -4.2284    constr:    0.0000
     atom:    4    charge:   13.5493    magn:   -4.2285    constr:    0.0000
     atom:    5    charge:   13.5491    magn:    4.2287    constr:    0.0000
     atom:    6    charge:   13.5493    magn:    4.2284    constr:    0.0000
     atom:    7    charge:   13.5492    magn:   -4.2285    constr:    0.0000
     atom:    8    charge:   13.5493    magn:   -4.2286    constr:    0.0000
     atom:    9    charge:    9.1227    magn:    0.0376    constr:    0.0000
     atom:   10    charge:    9.1228    magn:    0.0376    constr:    0.0000
     atom:   11    charge:    9.1226    magn:    0.0435    constr:    0.0000
     atom:   12    charge:    9.1224    magn:   -0.0436    constr:    0.0000
     atom:   13    charge:    9.1227    magn:   -0.0377    constr:    0.0000
     atom:   14    charge:    9.1228    magn:   -0.0377    constr:    0.0000
     atom:   15    charge:    9.1226    magn:   -0.0435    constr:    0.0000
     atom:   16    charge:    9.1225    magn:    0.0435    constr:    0.0000
     atom:   17    charge:    9.1227    magn:    0.0377    constr:    0.0000
     atom:   18    charge:    9.1228    magn:    0.0377    constr:    0.0000
     atom:   19    charge:    9.1226    magn:    0.0436    constr:    0.0000
     atom:   20    charge:    9.1225    magn:   -0.0435    constr:    0.0000
     atom:   21    charge:    9.1228    magn:   -0.0377    constr:    0.0000
     atom:   22    charge:    9.1229    magn:   -0.0377    constr:    0.0000
     atom:   23    charge:    9.1226    magn:   -0.0435    constr:    0.0000
     atom:   24    charge:    9.1225    magn:    0.0435    constr:    0.0000

     End of self-consistent calculation
 --- enter write_ns ---
 LDA+U parameters:
U(  1) =   3.1200   J(  1) =   0.7000   B(  1) =   0.0803
U(  2) =   3.1200   J(  2) =   0.7000   B(  2) =   0.0803
atom    1   Tr[ns(na)] (up, down, total) =   4.97117  0.74435  5.71552
   spin  1
    eigenvalues:
  0.985  0.994  0.994  0.996  1.002
    eigenvectors:
  0.000  0.000  0.000  1.000  0.000
  0.000  0.305  0.695  0.000  0.000
  0.000  0.695  0.305  0.000  0.000
  0.000  0.000  0.000  0.000  1.000
  1.000  0.000  0.000  0.000  0.000
    occupations:
  0.996 -0.000 -0.000  0.000  0.000
 -0.000  0.994 -0.000  0.000  0.000
 -0.000 -0.000  0.994  0.000  0.000
  0.000  0.000  0.000  1.002 -0.000
  0.000  0.000  0.000 -0.000  0.985
   spin  2
    eigenvalues:
  0.064  0.134  0.145  0.145  0.257
    eigenvectors:
  0.000  1.000  0.000  0.000  0.000
  0.000  0.000  0.263  0.737  0.000
  0.000  0.000  0.737  0.263  0.000
  1.000  0.000  0.000  0.000  0.000
  0.000  0.000  0.000  0.000  1.000
    occupations:
  0.134 -0.000 -0.000  0.000  0.000
 -0.000  0.145 -0.000  0.000  0.000
 -0.000 -0.000  0.145  0.000  0.000
  0.000  0.000  0.000  0.064 -0.000
  0.000  0.000  0.000 -0.000  0.257
atomic mag. moment =     4.226825
atom    2   Tr[ns(na)] (up, down, total) =   4.97118  0.74419  5.71536
   spin  1
    eigenvalues:
  0.984  0.994  0.994  0.996  1.002
    eigenvectors:
  0.000  0.000  0.000  1.000  0.000
  0.000  0.305  0.695  0.000  0.000
  0.000  0.695  0.305  0.000  0.000
  0.000  0.000  0.000  0.000  1.000
  1.000  0.000  0.000  0.000  0.000
    occupations:
  0.996 -0.000 -0.000  0.000  0.000
 -0.000  0.994 -0.000  0.000  0.000
 -0.000 -0.000  0.994  0.000  0.000
  0.000  0.000  0.000  1.002 -0.000
  0.000  0.000  0.000 -0.000  0.984
   spin  2
    eigenvalues:
  0.064  0.134  0.145  0.145  0.257
    eigenvectors:
  0.000  1.000  0.000  0.000  0.000
  0.000  0.000  0.292  0.708  0.000
  0.000  0.000  0.708  0.292  0.000
  1.000  0.000  0.000  0.000  0.000
  0.000  0.000  0.000  0.000  1.000
    occupations:
  0.134 -0.000 -0.000  0.000  0.000
 -0.000  0.145 -0.000  0.000  0.000
 -0.000 -0.000  0.145  0.000  0.000
  0.000  0.000  0.000  0.064 -0.000
  0.000  0.000  0.000 -0.000  0.257
atomic mag. moment =     4.226986
atom    3   Tr[ns(na)] (up, down, total) =   0.74423  4.97117  5.71540
   spin  1
    eigenvalues:
  0.064  0.134  0.144  0.144  0.257
    eigenvectors:
  0.000  1.000  0.000  0.000  0.000
  0.000  0.000  0.372  0.628  0.000
  0.000  0.000  0.628  0.372  0.000
  1.000  0.000  0.000  0.000  0.000
  0.000  0.000  0.000  0.000  1.000
    occupations:
  0.134 -0.000 -0.000  0.000  0.000
 -0.000  0.144 -0.000  0.000  0.000
 -0.000 -0.000  0.144  0.000  0.000
  0.000  0.000  0.000  0.064 -0.000
  0.000  0.000  0.000 -0.000  0.257
   spin  2
    eigenvalues:
  0.984  0.994  0.994  0.996  1.002
    eigenvectors:
  0.000  0.000  0.000  1.000  0.000
  0.000  0.263  0.737  0.000  0.000
  0.000  0.737  0.263  0.000  0.000
  0.000  0.000  0.000  0.000  1.000
  1.000  0.000  0.000  0.000  0.000
    occupations:
  0.996 -0.000 -0.000  0.000  0.000
 -0.000  0.994 -0.000  0.000  0.000
 -0.000 -0.000  0.994  0.000  0.000
  0.000  0.000  0.000  1.002 -0.000
  0.000  0.000  0.000 -0.000  0.984
atomic mag. moment =    -4.226933
atom    4   Tr[ns(na)] (up, down, total) =   0.74421  4.97116  5.71538
   spin  1
    eigenvalues:
  0.064  0.134  0.145  0.145  0.257
    eigenvectors:
  0.000  1.000  0.000  0.000  0.000
  0.000  0.000  0.362  0.638  0.000
  0.000  0.000  0.638  0.362  0.000
  1.000  0.000  0.000  0.000  0.000
  0.000  0.000  0.000  0.000  1.000
    occupations:
  0.134 -0.000 -0.000  0.000  0.000
 -0.000  0.145 -0.000  0.000  0.000
 -0.000 -0.000  0.145  0.000  0.000
  0.000  0.000  0.000  0.064 -0.000
  0.000  0.000  0.000 -0.000  0.257
   spin  2
    eigenvalues:
  0.985  0.994  0.994  0.996  1.002
    eigenvectors:
  0.000  0.000  0.000  1.000  0.000
  0.000  0.293  0.707  0.000  0.000
  0.000  0.707  0.293  0.000  0.000
  0.000  0.000  0.000  0.000  1.000
  1.000  0.000  0.000  0.000  0.000
    occupations:
  0.996 -0.000 -0.000  0.000  0.000
 -0.000  0.994 -0.000  0.000  0.000
 -0.000 -0.000  0.994  0.000  0.000
  0.000  0.000  0.000  1.002 -0.000
  0.000  0.000  0.000 -0.000  0.985
atomic mag. moment =    -4.226952
atom    5   Tr[ns(na)] (up, down, total) =   4.97118  0.74407  5.71525
   spin  1
    eigenvalues:
  0.985  0.994  0.994  0.996  1.002
    eigenvectors:
  0.000  0.000  0.000  1.000  0.000
  0.000  0.285  0.715  0.000  0.000
  0.000  0.715  0.285  0.000  0.000
  0.000  0.000  0.000  0.000  1.000
  1.000  0.000  0.000  0.000  0.000
    occupations:
  0.996 -0.000 -0.000  0.000  0.000
 -0.000  0.994 -0.000  0.000  0.000
 -0.000 -0.000  0.994  0.000  0.000
  0.000  0.000  0.000  1.002 -0.000
  0.000  0.000  0.000 -0.000  0.985
   spin  2
    eigenvalues:
  0.064  0.134  0.144  0.144  0.257
    eigenvectors:
  0.000  1.000  0.000  0.000  0.000
  0.000  0.000  0.389  0.611  0.000
  0.000  0.000  0.611  0.389  0.000
  1.000  0.000  0.000  0.000  0.000
  0.000  0.000  0.000  0.000  1.000
    occupations:
  0.134 -0.000 -0.000  0.000  0.000
 -0.000  0.144 -0.000  0.000  0.000
 -0.000 -0.000  0.144  0.000  0.000
  0.000  0.000  0.000  0.064 -0.000
  0.000  0.000  0.000 -0.000  0.257
atomic mag. moment =     4.227105
atom    6   Tr[ns(na)] (up, down, total) =   4.97116  0.74431  5.71548
   spin  1
    eigenvalues:
  0.984  0.994  0.994  0.996  1.002
    eigenvectors:
  0.000  0.000  0.000  1.000  0.000
  0.000  0.299  0.701  0.000  0.000
  0.000  0.701  0.299  0.000  0.000
  0.000  0.000  0.000  0.000  1.000
  1.000  0.000  0.000  0.000  0.000
    occupations:
  0.996 -0.000 -0.000  0.000  0.000
 -0.000  0.994 -0.000  0.000  0.000
 -0.000 -0.000  0.994  0.000  0.000
  0.000  0.000  0.000  1.002 -0.000
  0.000  0.000  0.000 -0.000  0.984
   spin  2
    eigenvalues:
  0.064  0.134  0.145  0.145  0.257
    eigenvectors:
  0.000  1.000  0.000  0.000  0.000
  0.000  0.000  0.301  0.699  0.000
  0.000  0.000  0.699  0.301  0.000
  1.000  0.000  0.000  0.000  0.000
  0.000  0.000  0.000  0.000  1.000
    occupations:
  0.134 -0.000 -0.000  0.000  0.000
 -0.000  0.145 -0.000  0.000  0.000
 -0.000 -0.000  0.145  0.000  0.000
  0.000  0.000  0.000  0.064 -0.000
  0.000  0.000  0.000 -0.000  0.257
atomic mag. moment =     4.226849
atom    7   Tr[ns(na)] (up, down, total) =   0.74431  4.97119  5.71549
   spin  1
    eigenvalues:
  0.064  0.134  0.145  0.145  0.257
    eigenvectors:
  0.000  1.000  0.000  0.000  0.000
  0.000  0.000  0.272  0.728  0.000
  0.000  0.000  0.728  0.272  0.000
  1.000  0.000  0.000  0.000  0.000
  0.000  0.000  0.000  0.000  1.000
    occupations:
  0.134 -0.000 -0.000  0.000  0.000
 -0.000  0.145 -0.000  0.000  0.000
 -0.000 -0.000  0.145  0.000  0.000
  0.000  0.000  0.000  0.064 -0.000
  0.000  0.000  0.000 -0.000  0.257
   spin  2
    eigenvalues:
  0.984  0.994  0.994  0.996  1.002
    eigenvectors:
  0.000  0.000  0.000  1.000  0.000
  0.000  0.361  0.639  0.000  0.000
  0.000  0.639  0.361  0.000  0.000
  0.000  0.000  0.000  0.000  1.000
  1.000  0.000  0.000  0.000  0.000
    occupations:
  0.996 -0.000 -0.000  0.000  0.000
 -0.000  0.994 -0.000  0.000  0.000
 -0.000 -0.000  0.994  0.000  0.000
  0.000  0.000  0.000  1.002 -0.000
  0.000  0.000  0.000 -0.000  0.984
atomic mag. moment =    -4.226878
atom    8   Tr[ns(na)] (up, down, total) =   0.74421  4.97117  5.71538
   spin  1
    eigenvalues:
  0.064  0.134  0.145  0.145  0.257
    eigenvectors:
  0.000  1.000  0.000  0.000  0.000
  0.000  0.000  0.300  0.700  0.000
  0.000  0.000  0.700  0.300  0.000
  1.000  0.000  0.000  0.000  0.000
  0.000  0.000  0.000  0.000  1.000
    occupations:
  0.134 -0.000 -0.000  0.000  0.000
 -0.000  0.145 -0.000  0.000  0.000
 -0.000 -0.000  0.145  0.000  0.000
  0.000  0.000  0.000  0.064 -0.000
  0.000  0.000  0.000 -0.000  0.257
   spin  2
    eigenvalues:
  0.985  0.994  0.994  0.996  1.002
    eigenvectors:
  0.000  0.000  0.000  1.000  0.000
  0.000  0.286  0.714  0.000  0.000
  0.000  0.714  0.286  0.000  0.000
  0.000  0.000  0.000  0.000  1.000
  1.000  0.000  0.000  0.000  0.000
    occupations:
  0.996 -0.000 -0.000  0.000  0.000
 -0.000  0.994 -0.000  0.000  0.000
 -0.000 -0.000  0.994  0.000  0.000
  0.000  0.000  0.000  1.002 -0.000
  0.000  0.000  0.000 -0.000  0.985
atomic mag. moment =    -4.226968
N of occupied +U levels =   45.723258
 --- exit write_ns ---

 ------ SPIN UP ------------

          k = 0.0000 0.0000 0.0000 ( 13925 PWs)   bands (ev):

   -66.7154 -66.7149 -66.7147 -66.7146 -62.1328 -62.1327 -62.1324 -62.1321
   -35.4870 -35.4866 -35.4863 -35.4860 -35.4322 -35.4322 -35.4316 -35.4316
   -35.4316 -35.4316 -35.4316 -35.4316 -30.9601 -30.9601 -30.9596 -30.9594
   -30.9510 -30.9510 -30.9510 -30.9510 -30.9508 -30.9508 -30.9505 -30.9505
     5.7776   5.8713   6.0083   6.3683   6.4028   6.9929   7.1063   7.6149
     8.3545   8.4100   8.4111   8.4312   8.4499   8.7000   8.7212   8.7288
     8.8058   8.8495   9.0060   9.0936   9.1258   9.1807   9.2878   9.2966
     9.3535   9.3685   9.4554   9.4895   9.8475   9.8926   9.9045   9.9188
     9.9195   9.9466  10.1296  10.1296  10.1686  10.1738  10.1767  10.1767
    10.1886  10.1886  10.2604  10.2984  10.3357  10.3357  10.3521  10.3521
    10.5000  10.5017  10.5447  10.5652  10.5876  10.5876  10.5899  10.5899
    10.6067  10.6067  10.6082  10.6082  10.6099  10.6636  10.6964  10.6964
    10.7272  10.7272  10.9377  10.9531  10.9531  11.0467  11.0467  11.0507
    11.0854  11.1113  11.1684  11.2488  11.2784  11.2945  11.3598  11.3598
    11.5272  11.5272  11.6322  11.6672  11.7249  11.7454  11.7539  11.7653
    11.7966  11.7966  11.9584  11.9584  12.0273  12.0958  12.0958  12.1003
    12.1025  12.1051  12.1805  12.2416  12.5557  12.5557  12.5750  12.5750
    12.6804  12.6878  12.8203  12.9300  12.9938  12.9952  13.1970  13.6472
    13.9040  14.5310  15.4738  15.9528  16.8153  16.8153  16.8212  16.8212
    16.9865  16.9866  17.0405  17.0406  17.1066  17.1066  17.1174  17.1174
    17.1330  17.1330  17.1861  17.1861  17.5182  17.5425  17.6044  17.6243
    18.6223  19.4610  19.9028  20.1047  20.1047  20.4138  20.4138  20.5933
    20.5933  21.4981

[...]

          k =-0.5000-0.5000 0.0000 ( 13964 PWs)   bands (ev):

[...]

 ------ SPIN DOWN ----------

[...]

          k = 0.3750-0.5000-0.0484 ( 13940 PWs)   bands (ev):

[...]

          k =-0.5000-0.5000-0.0484 ( 13992 PWs)   bands (ev):

   -66.7138 -66.7138 -66.7133 -66.7131 -62.1315 -62.1311 -62.1311 -62.1310
   -35.4850 -35.4849 -35.4847 -35.4846 -35.4428 -35.4428 -35.4427 -35.4427
   -35.4422 -35.4422 -35.4419 -35.4419 -30.9646 -30.9646 -30.9644 -30.9644
   -30.9643 -30.9643 -30.9642 -30.9642 -30.9578 -30.9573 -30.9572 -30.9571
     8.1053   8.1053   8.1058   8.1059   8.5109   8.5110   8.5111   8.5112
     8.9456   8.9456   8.9458   8.9458   9.2667   9.2667   9.2667   9.2667
     9.3339   9.3340   9.3342   9.3343   9.3562   9.3562   9.3562   9.3562
     9.5479   9.5479   9.5479   9.5479   9.8564   9.8564   9.8564   9.8564
     9.9306   9.9306   9.9307   9.9307   9.9550   9.9551   9.9557   9.9559
    10.0706  10.0706  10.0707  10.0707  10.3000  10.3000  10.3000  10.3000
    10.6158  10.6159  10.6159  10.6160  10.8769  10.8769  10.8769  10.8769
    11.1364  11.1364  11.1366  11.1367  11.4275  11.4275  11.4276  11.4276
    11.4594  11.4594  11.4595  11.4595  11.4910  11.4912  11.4915  11.4919
    11.9616  11.9618  11.9619  11.9619  11.9870  11.9873  11.9873  11.9873
    12.0533  12.0535  12.0535  12.0535  12.0804  12.0806  12.0806  12.0806
    12.2078  12.2079  12.2079  12.2080  12.3110  12.3110  12.3110  12.3110
    12.3308  12.3309  12.3309  12.3309  13.3966  13.3968  13.3968  13.3971
    13.9414  13.9414  13.9415  13.9415  14.5344  14.5344  14.5347  14.5347
    15.2460  15.2460  15.2461  15.2461  16.6368  16.6368  16.6369  16.6369
    16.6833  16.6837  16.6839  16.6840  16.9677  16.9680  16.9682  16.9683
    17.6092  17.6092  17.6093  17.6093  17.8083  17.8084  17.8085  17.8085
    18.1294  18.1296  18.1298  18.2445  18.2446  18.2448  18.2449  18.7029
    18.7039  18.7039

     the Fermi energy is    15.2347 ev

!    total energy              =  -14694.00904252 Ry
     Harris-Foulkes estimate   =  -14694.00904218 Ry
     estimated scf accuracy    <       0.00000040 Ry

     total all-electron energy =   -626921.604764 Ry

     The total energy is the sum of the following terms:

     one-electron contribution =    -714.57374735 Ry
     hartree contribution      =     656.61147935 Ry
     xc contribution           =    -737.87583243 Ry
     ewald contribution        =   -2196.78933708 Ry
     Hubbard energy            =       0.45354953 Ry
     one-center paw contrib.   =  -11701.83515455 Ry

     total magnetization       =     0.00 Bohr mag/cell
     absolute magnetization    =    37.26 Bohr mag/cell

     convergence has been achieved in  49 iterations

     Writing output data file mnau2.save/

     General routines

     Parallel routines

     Hubbard U routines

      53h

   This run was terminated on:  22:53:58   8Apr2019

   JOB DONE.