     Program PWSCF v.6.3MaX starts on  8Apr2019 at 22:54: 1

     R & G space division:  proc/nbgrp/npool/nimage =      32
     Waiting for input...
     Reading input from standard input

     Current dimensions of program PWSCF are:
     Max number of different atomic species (ntypx) = 10
     Max number of k-points (npk) =  40000
     Max angular momentum in pseudopotentials (lmaxx) =  3
               file Mn.pbe-spn-kjpaw_psl.0.3.1.UPF: wavefunction(s)  3P 3D renormalized
               file Mn.pbe-spn-kjpaw_psl.0.3.1.UPF: wavefunction(s)  3P 3D renormalized
               file Au.pbe-dn-kjpaw_psl.0.1.UPF: wavefunction(s)  6S 6P 5D renormalized

     Found symmetry operation: I + (  0.0000  0.0000  0.2500)
     This is a supercell, fractional translations are disabled

     bravais-lattice index     =            0
     lattice parameter (alat)  =       6.4153  a.u.
     unit-cell volume          =    2724.7774 (a.u.)^3
     number of atoms/cell      =           24
     number of atomic types    =            3
     number of electrons       =       296.00
     number of Kohn-Sham states=          178
     kinetic-energy cutoff     =      45.0000  Ry
     charge density cutoff     =     400.0000  Ry
     convergence threshold     =      1.0E-06
     mixing beta               =       0.0600
     number of iterations used =            8  plain     mixing
     Exchange-correlation      = SLA PW PBX PBC ( 1  4  3  4 0 0)

     celldm(1)=   6.415315  celldm(2)=   0.000000  celldm(3)=   0.000000
     celldm(4)=   0.000000  celldm(5)=   0.000000  celldm(6)=   0.000000

     crystal axes: (cart. coord. in units of alat)
               a(1) = (   1.000000   0.000000   0.000000 )
               a(2) = (   0.000000   1.000000   0.000000 )
               a(3) = (   0.000000   0.000000  10.319937 )

     reciprocal axes: (cart. coord. in units 2 pi/alat)
               b(1) = (  1.000000  0.000000  0.000000 )
               b(2) = (  0.000000  1.000000  0.000000 )
               b(3) = (  0.000000  0.000000  0.096900 )

     PseudoPot. # 1 for Mn read from file:
     ./pseudo/Mn.pbe-spn-kjpaw_psl.0.3.1.UPF
     MD5 check sum: 7b43a3fb0e93e198b8dd8488d8cf503e
     Pseudo is Projector augmented-wave + core cor, Zval = 15.0
     Generated using "atomic" code by A. Dal Corso v.5.0.99 svn rev. 10869
     Shape of augmentation charge: PSQ
     Using radial grid of 1187 points,  6 beta functions with:
                l(1) =   0
                l(2) =   0
                l(3) =   1
                l(4) =   1
                l(5) =   2
                l(6) =   2
     Q(r) pseudized with 0 coefficients

     PseudoPot. # 2 for Mn read from file:
     ./pseudo/Mn.pbe-spn-kjpaw_psl.0.3.1.UPF
     MD5 check sum: 7b43a3fb0e93e198b8dd8488d8cf503e
     Pseudo is Projector augmented-wave + core cor, Zval = 15.0
     Generated using "atomic" code by A. Dal Corso v.5.0.99 svn rev. 10869
     Shape of augmentation charge: PSQ
     Using radial grid of 1187 points,  6 beta functions with:
                l(1) =   0
                l(2) =   0
                l(3) =   1
                l(4) =   1
                l(5) =   2
                l(6) =   2
     Q(r) pseudized with 0 coefficients

     PseudoPot. # 3 for Au read from file:
     ./pseudo/Au.pbe-dn-kjpaw_psl.0.1.UPF
     MD5 check sum: be11e2e8e535ebe2b3ccfb4f88f554cb
     Pseudo is Projector augmented-wave + core cor, Zval = 11.0
     Generated using "atomic" code by A. Dal Corso v.5.0.2 svn rev. 9415
     Shape of augmentation charge: PSQ
     Using radial grid of 1279 points,  6 beta functions with:
                l(1) =   0
                l(2) =   0
                l(3) =   1
                l(4) =   1
                l(5) =   2
                l(6) =   2
     Q(r) pseudized with 0 coefficients

     atomic species   valence    mass     pseudopotential
        Mn1           15.00    54.93800     Mn( 1.00)
        Mn2           15.00    54.93800     Mn( 1.00)
        Au            11.00   196.96600     Au( 1.00)

     Starting magnetic structure
     atomic species   magnetization
        Mn1          0.800
        Mn2         -0.800
        Au           0.000

     Full LDA+U calculation (l_max = 2) with parameters (eV):
     U(  1) =   3.1200   J(  1) =   0.7000   B(  1) =   0.0803
     U(  2) =   3.1200   J(  2) =   0.7000   B(  2) =   0.0803

     16 Sym. Ops., with inversion, found

   Cartesian axes

     site n.     atom                  positions (alat units)
         1           Mn1 tau(   1) = (   0.0000000   0.0000000   0.0000000  )
         2           Mn2 tau(   2) = (   0.5000000   0.5000000   1.2899921  )
         3           Mn1 tau(   3) = (   0.0000000   0.0000000   2.5799843  )
         4           Mn2 tau(   4) = (   0.5000000   0.5000000   3.8699764  )
         5           Mn1 tau(   5) = (   0.0000000   0.0000000   5.1599686  )
         6           Mn2 tau(   6) = (   0.5000000   0.5000000   6.4499607  )
         7           Mn1 tau(   7) = (   0.0000000   0.0000000   7.7399528  )
         8           Mn2 tau(   8) = (   0.5000000   0.5000000   9.0299450  )
         9           Au  tau(   9) = (   0.5000000   0.5000000   0.4127975  )
        10           Au  tau(  10) = (   0.0000000   0.0000000   0.8771947  )
        11           Au  tau(  11) = (   0.0000000   0.0000000   1.7027896  )
        12           Au  tau(  12) = (   0.5000000   0.5000000   2.1671868  )
        13           Au  tau(  13) = (   0.5000000   0.5000000   2.9927818  )
        14           Au  tau(  14) = (   0.0000000   0.0000000   3.4571789  )
        15           Au  tau(  15) = (   0.0000000   0.0000000   4.2827739  )
        16           Au  tau(  16) = (   0.5000000   0.5000000   4.7471711  )
        17           Au  tau(  17) = (   0.5000000   0.5000000   5.5727660  )
        18           Au  tau(  18) = (   0.0000000   0.0000000   6.0371632  )
        19           Au  tau(  19) = (   0.0000000   0.0000000   6.8627582  )
        20           Au  tau(  20) = (   0.5000000   0.5000000   7.3271553  )
        21           Au  tau(  21) = (   0.5000000   0.5000000   8.1527503  )
        22           Au  tau(  22) = (   0.0000000   0.0000000   8.6171475  )
        23           Au  tau(  23) = (   0.0000000   0.0000000   9.4427424  )
        24           Au  tau(  24) = (   0.5000000   0.5000000   9.9071396  )

     number of k points=    45 (tetrahedron method)
                       cart. coord. in units 2pi/alat
        k(    1) = (   0.0000000   0.0000000   0.0000000), wk =   0.0039062
        k(    2) = (   0.0000000   0.0000000   0.0242250), wk =   0.0078125
        k(    3) = (   0.0000000   0.0000000  -0.0484499), wk =   0.0039062
        k(    4) = (   0.0000000   0.1250000   0.0000000), wk =   0.0156250
        k(    5) = (   0.0000000   0.1250000   0.0242250), wk =   0.0312500
        k(    6) = (   0.0000000   0.1250000  -0.0484499), wk =   0.0156250
        k(    7) = (   0.0000000   0.2500000   0.0000000), wk =   0.0156250
        k(    8) = (   0.0000000   0.2500000   0.0242250), wk =   0.0312500
        k(    9) = (   0.0000000   0.2500000  -0.0484499), wk =   0.0156250
        k(   10) = (   0.0000000   0.3750000   0.0000000), wk =   0.0156250
        k(   11) = (   0.0000000   0.3750000   0.0242250), wk =   0.0312500
        k(   12) = (   0.0000000   0.3750000  -0.0484499), wk =   0.0156250
        k(   13) = (   0.0000000  -0.5000000   0.0000000), wk =   0.0078125
        k(   14) = (   0.0000000  -0.5000000   0.0242250), wk =   0.0156250
        k(   15) = (   0.0000000  -0.5000000  -0.0484499), wk =   0.0078125
        k(   16) = (   0.1250000   0.1250000   0.0000000), wk =   0.0156250
        k(   17) = (   0.1250000   0.1250000   0.0242250), wk =   0.0312500
        k(   18) = (   0.1250000   0.1250000  -0.0484499), wk =   0.0156250
        k(   19) = (   0.1250000   0.2500000   0.0000000), wk =   0.0312500
        k(   20) = (   0.1250000   0.2500000   0.0242250), wk =   0.0625000
        k(   21) = (   0.1250000   0.2500000  -0.0484499), wk =   0.0312500
        k(   22) = (   0.1250000   0.3750000   0.0000000), wk =   0.0312500
        k(   23) = (   0.1250000   0.3750000   0.0242250), wk =   0.0625000
        k(   24) = (   0.1250000   0.3750000  -0.0484499), wk =   0.0312500
        k(   25) = (   0.1250000  -0.5000000   0.0000000), wk =   0.0156250
        k(   26) = (   0.1250000  -0.5000000   0.0242250), wk =   0.0312500
        k(   27) = (   0.1250000  -0.5000000  -0.0484499), wk =   0.0156250
        k(   28) = (   0.2500000   0.2500000   0.0000000), wk =   0.0156250
        k(   29) = (   0.2500000   0.2500000   0.0242250), wk =   0.0312500
        k(   30) = (   0.2500000   0.2500000  -0.0484499), wk =   0.0156250
        k(   31) = (   0.2500000   0.3750000   0.0000000), wk =   0.0312500
        k(   32) = (   0.2500000   0.3750000   0.0242250), wk =   0.0625000
        k(   33) = (   0.2500000   0.3750000  -0.0484499), wk =   0.0312500
        k(   34) = (   0.2500000  -0.5000000   0.0000000), wk =   0.0156250
        k(   35) = (   0.2500000  -0.5000000   0.0242250), wk =   0.0312500
        k(   36) = (   0.2500000  -0.5000000  -0.0484499), wk =   0.0156250
        k(   37) = (   0.3750000   0.3750000   0.0000000), wk =   0.0156250
        k(   38) = (   0.3750000   0.3750000   0.0242250), wk =   0.0312500
        k(   39) = (   0.3750000   0.3750000  -0.0484499), wk =   0.0156250
        k(   40) = (   0.3750000  -0.5000000   0.0000000), wk =   0.0156250
        k(   41) = (   0.3750000  -0.5000000   0.0242250), wk =   0.0312500
        k(   42) = (   0.3750000  -0.5000000  -0.0484499), wk =   0.0156250
        k(   43) = (  -0.5000000  -0.5000000   0.0000000), wk =   0.0039062
        k(   44) = (  -0.5000000  -0.5000000   0.0242250), wk =   0.0078125
        k(   45) = (  -0.5000000  -0.5000000  -0.0484499), wk =   0.0039062

     Check: negative/imaginary core charge=   -0.000006    0.000000

     Initial potential from superposition of free atoms

     starting charge  295.99426, renormalised to  296.00000
     Number of +U iterations with fixed ns =  0
     Starting occupations:
 --- enter write_ns ---
 LDA+U parameters:
U(  1) =   3.1200   J(  1) =   0.7000   B(  1) =   0.0803
U(  2) =   3.1200   J(  2) =   0.7000   B(  2) =   0.0803
atom    1   Tr[ns(na)] (up, down, total) =   5.00000  0.00000  5.00000
   spin  1
    eigenvalues:
  1.000  1.000  1.000  1.000  1.000
    eigenvectors:
  1.000  0.000  0.000  0.000  0.000
  0.000  1.000  0.000  0.000  0.000
  0.000  0.000  1.000  0.000  0.000
  0.000  0.000  0.000  1.000  0.000
  0.000  0.000  0.000  0.000  1.000
    occupations:
  1.000  0.000  0.000  0.000  0.000
  0.000  1.000  0.000  0.000  0.000
  0.000  0.000  1.000  0.000  0.000
  0.000  0.000  0.000  1.000  0.000
  0.000  0.000  0.000  0.000  1.000
   spin  2
    eigenvalues:
  0.000  0.000  0.000  0.000  0.000
    eigenvectors:
  1.000  0.000  0.000  0.000  0.000
  0.000  1.000  0.000  0.000  0.000
  0.000  0.000  1.000  0.000  0.000
  0.000  0.000  0.000  1.000  0.000
  0.000  0.000  0.000  0.000  1.000
    occupations:
  0.000  0.000  0.000  0.000  0.000
  0.000  0.000  0.000  0.000  0.000
[...]
  1.000  0.000  0.000  0.000  0.000
  0.000  0.000  0.000  0.000  1.000
    occupations:
  0.073 -0.000 -0.000  0.000  0.000
 -0.000  0.079 -0.000  0.000  0.000
 -0.000 -0.000  0.079  0.000  0.000
  0.000  0.000  0.000  0.053 -0.000
  0.000  0.000  0.000 -0.000  0.124
   spin  2
    eigenvalues:
  1.003  1.003  1.003  1.004  1.004
    eigenvectors:
  0.000  0.000  0.000  1.000  0.000
  0.000  0.261  0.739  0.000  0.000
  0.000  0.739  0.261  0.000  0.000
  0.000  0.000  0.000  0.000  1.000
  1.000  0.000  0.000  0.000  0.000
    occupations:
  1.004 -0.000 -0.000  0.000  0.000
 -0.000  1.003 -0.000  0.000  0.000
 -0.000 -0.000  1.003  0.000  0.000
  0.000  0.000  0.000  1.004 -0.000
  0.000  0.000  0.000 -0.000  1.003
atomic mag. moment =    -4.608622
N of occupied +U levels =   43.407856
 --- exit write_ns ---

     total energy              =  -14686.74590899 Ry
     Harris-Foulkes estimate   =  -14685.83322267 Ry
     estimated scf accuracy    <      11.56343140 Ry

     total magnetization       =    -0.00 Bohr mag/cell
     absolute magnetization    =    41.67 Bohr mag/cell

     iteration #  2     ecut=    45.00 Ry     beta= 0.06
     Davidson diagonalization with overlap
     ethr =  3.91E-03,  avg # of iterations =  1.0

[...]

     iteration # 18     ecut=    45.00 Ry     beta= 0.06
     Davidson diagonalization with overlap
     c_bands:  1 eigenvalues not converged
     ethr =  2.33E-07,  avg # of iterations =  1.6

[...]

     total energy              =  -14693.98929874 Ry
     Harris-Foulkes estimate   =  -14693.98929874 Ry
     estimated scf accuracy    <       0.00000319 Ry

[...]

     iteration # 85     ecut=    45.00 Ry     beta= 0.06
     Davidson diagonalization with overlap
     ethr =  5.41E-10,  avg # of iterations =  1.0

     Magnetic moment per site:
     atom:    1    charge:   13.5421    magn:    4.2706    constr:    0.0000
     atom:    2    charge:   13.5421    magn:   -4.2718    constr:    0.0000
     atom:    3    charge:   13.5417    magn:    4.2735    constr:    0.0000
     atom:    4    charge:   13.5420    magn:   -4.2718    constr:    0.0000
     atom:    5    charge:   13.5421    magn:    4.2699    constr:    0.0000
     atom:    6    charge:   13.5420    magn:   -4.2718    constr:    0.0000
     atom:    7    charge:   13.5417    magn:    4.2735    constr:    0.0000
     atom:    8    charge:   13.5421    magn:   -4.2718    constr:    0.0000
     atom:    9    charge:    9.1253    magn:    0.0394    constr:    0.0000
     atom:   10    charge:    9.1254    magn:   -0.0391    constr:    0.0000
     atom:   11    charge:    9.1256    magn:   -0.0385    constr:    0.0000
     atom:   12    charge:    9.1255    magn:    0.0387    constr:    0.0000
     atom:   13    charge:    9.1255    magn:    0.0385    constr:    0.0000
     atom:   14    charge:    9.1256    magn:   -0.0386    constr:    0.0000
     atom:   15    charge:    9.1254    magn:   -0.0394    constr:    0.0000
     atom:   16    charge:    9.1253    magn:    0.0392    constr:    0.0000
     atom:   17    charge:    9.1253    magn:    0.0392    constr:    0.0000
     atom:   18    charge:    9.1254    magn:   -0.0394    constr:    0.0000
     atom:   19    charge:    9.1256    magn:   -0.0386    constr:    0.0000
     atom:   20    charge:    9.1255    magn:    0.0385    constr:    0.0000
     atom:   21    charge:    9.1255    magn:    0.0387    constr:    0.0000
     atom:   22    charge:    9.1256    magn:   -0.0385    constr:    0.0000
     atom:   23    charge:    9.1254    magn:   -0.0391    constr:    0.0000
     atom:   24    charge:    9.1253    magn:    0.0394    constr:    0.0000

     End of self-consistent calculation
 --- enter write_ns ---
 LDA+U parameters:
U(  1) =   3.1200   J(  1) =   0.7000   B(  1) =   0.0803
U(  2) =   3.1200   J(  2) =   0.7000   B(  2) =   0.0803
atom    1   Tr[ns(na)] (up, down, total) =   4.97412  0.70829  5.68241
   spin  1
    eigenvalues:
  0.985  0.994  0.994  0.998  1.003
    eigenvectors:
  0.000  0.000  0.000  1.000  0.000
  0.000  0.348  0.652  0.000  0.000
  0.000  0.652  0.348  0.000  0.000
  0.000  0.000  0.000  0.000  1.000
  1.000  0.000  0.000  0.000  0.000
    occupations:
  0.998 -0.000 -0.000  0.000  0.000
 -0.000  0.994 -0.000  0.000  0.000
 -0.000 -0.000  0.994  0.000  0.000
  0.000  0.000  0.000  1.003 -0.000
  0.000  0.000  0.000 -0.000  0.985
   spin  2
    eigenvalues:
  0.067  0.116  0.143  0.143  0.239
    eigenvectors:
  0.000  1.000  0.000  0.000  0.000
  0.000  0.000  0.307  0.693  0.000
  0.000  0.000  0.693  0.307  0.000
  1.000  0.000  0.000  0.000  0.000
  0.000  0.000  0.000  0.000  1.000
    occupations:
  0.116 -0.000 -0.000  0.000  0.000
 -0.000  0.143 -0.000  0.000  0.000
 -0.000 -0.000  0.143  0.000  0.000
  0.000  0.000  0.000  0.067 -0.000
  0.000  0.000  0.000 -0.000  0.239
atomic mag. moment =     4.265835
atom    2   Tr[ns(na)] (up, down, total) =   0.70748  4.97430  5.68178
   spin  1
    eigenvalues:
  0.067  0.114  0.144  0.144  0.238
    eigenvectors:
  0.000  1.000  0.000  0.000  0.000
  0.000  0.000  0.282  0.718  0.000
  0.000  0.000  0.718  0.282  0.000
  1.000  0.000  0.000  0.000  0.000
  0.000  0.000  0.000  0.000  1.000
    occupations:
  0.114 -0.000 -0.000  0.000  0.000
 -0.000  0.144 -0.000  0.000  0.000
 -0.000 -0.000  0.144  0.000  0.000
  0.000  0.000  0.000  0.067 -0.000
  0.000  0.000  0.000 -0.000  0.238
   spin  2
    eigenvalues:
  0.985  0.994  0.994  0.998  1.003
    eigenvectors:
  0.000  0.000  0.000  1.000  0.000
  0.000  0.358  0.642  0.000  0.000
  0.000  0.642  0.358  0.000  0.000
  0.000  0.000  0.000  0.000  1.000
  1.000  0.000  0.000  0.000  0.000
    occupations:
  0.998 -0.000 -0.000  0.000  0.000
 -0.000  0.994 -0.000  0.000  0.000
 -0.000 -0.000  0.994  0.000  0.000
  0.000  0.000  0.000  1.003 -0.000
  0.000  0.000  0.000 -0.000  0.985
atomic mag. moment =    -4.266820
atom    3   Tr[ns(na)] (up, down, total) =   4.97452  0.70608  5.68060
   spin  1
    eigenvalues:
  0.985  0.994  0.994  0.998  1.003
    eigenvectors:
  0.000  0.000  0.000  1.000  0.000
  0.000  0.271  0.729  0.000  0.000
  0.000  0.729  0.271  0.000  0.000
  0.000  0.000  0.000  0.000  1.000
  1.000  0.000  0.000  0.000  0.000
    occupations:
  0.998 -0.000 -0.000  0.000  0.000
 -0.000  0.994 -0.000  0.000  0.000
 -0.000 -0.000  0.994  0.000  0.000
  0.000  0.000  0.000  1.003 -0.000
  0.000  0.000  0.000 -0.000  0.985
   spin  2
    eigenvalues:
  0.067  0.113  0.145  0.145  0.237
    eigenvectors:
  0.000  1.000  0.000  0.000  0.000
  0.000  0.000  0.259  0.741  0.000
  0.000  0.000  0.741  0.259  0.000
  1.000  0.000  0.000  0.000  0.000
  0.000  0.000  0.000  0.000  1.000
    occupations:
  0.113 -0.000 -0.000  0.000  0.000
 -0.000  0.145 -0.000  0.000  0.000
 -0.000 -0.000  0.145  0.000  0.000
  0.000  0.000  0.000  0.067 -0.000
  0.000  0.000  0.000 -0.000  0.237
atomic mag. moment =     4.268440
atom    4   Tr[ns(na)] (up, down, total) =   0.70741  4.97426  5.68167
   spin  1
    eigenvalues:
  0.067  0.115  0.144  0.144  0.238
    eigenvectors:
  0.000  1.000  0.000  0.000  0.000
  0.000  0.000  0.396  0.604  0.000
  0.000  0.000  0.604  0.396  0.000
  1.000  0.000  0.000  0.000  0.000
  0.000  0.000  0.000  0.000  1.000
    occupations:
  0.115 -0.000 -0.000  0.000  0.000
 -0.000  0.144 -0.000  0.000  0.000
 -0.000 -0.000  0.144  0.000  0.000
  0.000  0.000  0.000  0.067 -0.000
  0.000  0.000  0.000 -0.000  0.238
   spin  2
    eigenvalues:
  0.985  0.994  0.994  0.998  1.003
    eigenvectors:
  0.000  0.000  0.000  1.000  0.000
  0.000  0.362  0.638  0.000  0.000
  0.000  0.638  0.362  0.000  0.000
  0.000  0.000  0.000  0.000  1.000
  1.000  0.000  0.000  0.000  0.000
    occupations:
  0.998 -0.000 -0.000  0.000  0.000
 -0.000  0.994 -0.000  0.000  0.000
 -0.000 -0.000  0.994  0.000  0.000
  0.000  0.000  0.000  1.003 -0.000
  0.000  0.000  0.000 -0.000  0.985
atomic mag. moment =    -4.266850
atom    5   Tr[ns(na)] (up, down, total) =   4.97403  0.70876  5.68279
   spin  1
    eigenvalues:
  0.985  0.994  0.994  0.998  1.003
    eigenvectors:
  0.000  0.000  0.000  1.000  0.000
  0.000  0.288  0.712  0.000  0.000
  0.000  0.712  0.288  0.000  0.000
  0.000  0.000  0.000  0.000  1.000
  1.000  0.000  0.000  0.000  0.000
    occupations:
  0.998 -0.000 -0.000  0.000  0.000
 -0.000  0.994 -0.000  0.000  0.000
 -0.000 -0.000  0.994  0.000  0.000
  0.000  0.000  0.000  1.003 -0.000
  0.000  0.000  0.000 -0.000  0.985
   spin  2
    eigenvalues:
  0.067  0.116  0.143  0.143  0.239
    eigenvectors:
  0.000  1.000  0.000  0.000  0.000
  0.000  0.000  0.305  0.695  0.000
  0.000  0.000  0.695  0.305  0.000
  1.000  0.000  0.000  0.000  0.000
  0.000  0.000  0.000  0.000  1.000
    occupations:
  0.116 -0.000 -0.000  0.000  0.000
 -0.000  0.143 -0.000  0.000  0.000
 -0.000 -0.000  0.143  0.000  0.000
  0.000  0.000  0.000  0.067 -0.000
  0.000  0.000  0.000 -0.000  0.239
atomic mag. moment =     4.265274
atom    6   Tr[ns(na)] (up, down, total) =   0.70741  4.97426  5.68167
   spin  1
    eigenvalues:
  0.067  0.115  0.144  0.144  0.238
    eigenvectors:
  0.000  1.000  0.000  0.000  0.000
  0.000  0.000  0.307  0.693  0.000
  0.000  0.000  0.693  0.307  0.000
  1.000  0.000  0.000  0.000  0.000
  0.000  0.000  0.000  0.000  1.000
    occupations:
  0.115 -0.000 -0.000  0.000  0.000
 -0.000  0.144 -0.000  0.000  0.000
 -0.000 -0.000  0.144  0.000  0.000
  0.000  0.000  0.000  0.067 -0.000
  0.000  0.000  0.000 -0.000  0.238
   spin  2
    eigenvalues:
  0.985  0.994  0.994  0.998  1.003
    eigenvectors:
  0.000  0.000  0.000  1.000  0.000
  0.000  0.352  0.648  0.000  0.000
  0.000  0.648  0.352  0.000  0.000
  0.000  0.000  0.000  0.000  1.000
  1.000  0.000  0.000  0.000  0.000
    occupations:
  0.998 -0.000 -0.000  0.000  0.000
 -0.000  0.994 -0.000  0.000  0.000
 -0.000 -0.000  0.994  0.000  0.000
  0.000  0.000  0.000  1.003 -0.000
  0.000  0.000  0.000 -0.000  0.985
atomic mag. moment =    -4.266850
atom    7   Tr[ns(na)] (up, down, total) =   4.97452  0.70608  5.68060
   spin  1
    eigenvalues:
  0.985  0.994  0.994  0.998  1.003
    eigenvectors:
  0.000  0.000  0.000  1.000  0.000
  0.000  0.307  0.693  0.000  0.000
  0.000  0.693  0.307  0.000  0.000
  0.000  0.000  0.000  0.000  1.000
  1.000  0.000  0.000  0.000  0.000
    occupations:
  0.998 -0.000 -0.000  0.000  0.000
 -0.000  0.994 -0.000  0.000  0.000
 -0.000 -0.000  0.994  0.000  0.000
  0.000  0.000  0.000  1.003 -0.000
  0.000  0.000  0.000 -0.000  0.985
   spin  2
    eigenvalues:
  0.067  0.113  0.145  0.145  0.237
    eigenvectors:
  0.000  1.000  0.000  0.000  0.000
  0.000  0.000  0.344  0.656  0.000
  0.000  0.000  0.656  0.344  0.000
  1.000  0.000  0.000  0.000  0.000
  0.000  0.000  0.000  0.000  1.000
    occupations:
  0.113 -0.000 -0.000  0.000  0.000
 -0.000  0.145 -0.000  0.000  0.000
 -0.000 -0.000  0.145  0.000  0.000
  0.000  0.000  0.000  0.067 -0.000
  0.000  0.000  0.000 -0.000  0.237
atomic mag. moment =     4.268440
atom    8   Tr[ns(na)] (up, down, total) =   0.70748  4.97430  5.68178
   spin  1
    eigenvalues:
  0.067  0.114  0.144  0.144  0.238
    eigenvectors:
  0.000  1.000  0.000  0.000  0.000
  0.000  0.000  0.333  0.667  0.000
  0.000  0.000  0.667  0.333  0.000
  1.000  0.000  0.000  0.000  0.000
  0.000  0.000  0.000  0.000  1.000
    occupations:
  0.114 -0.000 -0.000  0.000  0.000
 -0.000  0.144 -0.000  0.000  0.000
 -0.000 -0.000  0.144  0.000  0.000
  0.000  0.000  0.000  0.067 -0.000
  0.000  0.000  0.000 -0.000  0.238
   spin  2
    eigenvalues:
  0.985  0.994  0.994  0.998  1.003
    eigenvectors:
  0.000  0.000  0.000  1.000  0.000
  0.000  0.333  0.667  0.000  0.000
  0.000  0.667  0.333  0.000  0.000
  0.000  0.000  0.000  0.000  1.000
  1.000  0.000  0.000  0.000  0.000
    occupations:
  0.998 -0.000 -0.000  0.000  0.000
 -0.000  0.994 -0.000  0.000  0.000
 -0.000 -0.000  0.994  0.000  0.000
  0.000  0.000  0.000  1.003 -0.000
  0.000  0.000  0.000 -0.000  0.985
atomic mag. moment =    -4.266820
N of occupied +U levels =   45.453325
 --- exit write_ns ---

 ------ SPIN UP ------------

          k = 0.0000 0.0000 0.0000 ( 13925 PWs)   bands (ev):

   -66.8046 -66.8046 -66.8021 -66.8008 -62.1799 -62.1799 -62.1795 -62.1795
   -35.5694 -35.5694 -35.5674 -35.5662 -35.5217 -35.5217 -35.5217 -35.5217
   -35.5189 -35.5189 -35.5177 -35.5177 -31.0003 -31.0002 -30.9999 -30.9999
   -30.9992 -30.9992 -30.9992 -30.9992 -30.9987 -30.9987 -30.9987 -30.9987
     5.7876   5.9355   5.9357   6.2792   6.4891   7.0604   7.0608   7.6258
     8.3593   8.4942   8.5055   8.5275   8.5278   8.5530   8.5722   8.5725
     8.7092   8.9013   8.9029   9.0266   9.1947   9.2816   9.2825   9.3214
     9.3223   9.3874   9.4123   9.4681   9.9864  10.0018  10.0030  10.0074
    10.0205  10.1321  10.1456  10.1456  10.1583  10.1583  10.1660  10.1822
    10.1825  10.1979  10.1979  10.1988  10.1988  10.3098  10.3547  10.3547
    10.3621  10.3621  10.5501  10.6064  10.6064  10.6070  10.6070  10.6083
    10.6083  10.6102  10.6102  10.6110  10.6120  10.6287  10.6287  10.6291
    10.6291  10.6827  10.9389  10.9389  11.0277  11.0602  11.0602  11.1541
    11.1552  11.2325  11.2680  11.3343  11.3350  11.4272  11.4272  11.4283
    11.4283  11.4368  11.4374  11.4600  11.4624  11.4905  11.7118  11.7118
    11.8837  11.9287  11.9292  11.9661  12.0928  12.1639  12.1639  12.1795
    12.1805  12.2608  12.3491  12.3491  12.3502  12.3502  12.4669  12.4669
    12.7955  12.8288  12.8301  12.8379  12.8581  13.0306  13.0321  13.3794
    14.2989  15.0459  15.0472  15.7999  16.8735  16.8735  16.9231  16.9231
    16.9232  16.9232  16.9687  16.9689  16.9696  16.9698  16.9775  16.9775
    17.1862  17.1863  17.1873  17.1874  17.6006  17.6135  17.6140  17.6236
    18.6306  19.6886  19.6887  20.1120  20.1120  20.5005  20.5005  20.5007
    20.5007  21.4151

[...]

          k =-0.5000-0.5000 0.0000 ( 13964 PWs)   bands (ev):

[...]

 ------ SPIN DOWN ----------

[...]

          k = 0.3750-0.5000-0.0484 ( 13940 PWs)   bands (ev):

[...]

          k =-0.5000-0.5000-0.0484 ( 13992 PWs)   bands (ev):

   -66.8016 -66.8016 -66.8011 -66.8011 -62.1786 -62.1786 -62.1784 -62.1784
   -35.5661 -35.5661 -35.5660 -35.5660 -35.5307 -35.5307 -35.5307 -35.5307
   -35.5301 -35.5301 -35.5301 -35.5301 -31.0127 -31.0127 -31.0127 -31.0127
   -31.0125 -31.0125 -31.0124 -31.0124 -30.9984 -30.9981 -30.9973 -30.9973
     8.1868   8.1870   8.1904   8.1905   8.3065   8.3066   8.4316   8.4320
     8.9198   8.9200   9.0687   9.0690   9.2823   9.2823   9.2826   9.2826
     9.3135   9.3138   9.3691   9.3691   9.3694   9.3694   9.3768   9.3770
     9.5575   9.5575   9.5575   9.5575   9.8643   9.8643   9.8643   9.8643
     9.8839   9.8842   9.9693   9.9693   9.9696   9.9696   9.9702   9.9702
     9.9705   9.9705  10.0709  10.0710  10.2972  10.2972  10.2973  10.2973
    10.5386  10.5391  10.6694  10.6698  10.8154  10.8154  10.8157  10.8157
    11.1972  11.1973  11.2149  11.2150  11.2296  11.2298  11.3371  11.3374
    11.4214  11.4215  11.4222  11.4223  11.6476  11.6476  11.6477  11.6477
    11.9828  11.9828  11.9828  11.9829  12.0083  12.0089  12.0097  12.0099
    12.0729  12.0729  12.0730  12.0730  12.1007  12.1013  12.1021  12.1023
    12.1828  12.1828  12.1831  12.1831  12.1991  12.1993  12.2222  12.2224
    12.2767  12.2771  12.4147  12.4150  13.4215  13.4223  13.4388  13.4394
    13.9590  13.9590  13.9592  13.9592  14.3276  14.3276  14.3278  14.3278
    15.8803  15.8803  15.8805  15.8805  16.0377  16.0377  16.0379  16.0379
    16.6139  16.6140  16.6895  16.6899  16.8796  16.8797  17.2201  17.2201
    17.7235  17.7235  17.7236  17.7236  17.7881  17.7885  17.9175  17.9179
    17.9778  17.9779  18.0686  18.0686  18.0690  18.0692  18.5719  18.5721
    18.6870  18.6870

     the Fermi energy is    15.3196 ev

!    total energy              =  -14693.98929962 Ry
     Harris-Foulkes estimate   =  -14693.98929878 Ry
     estimated scf accuracy    <       0.00000018 Ry

     total all-electron energy =   -626921.585022 Ry

     The total energy is the sum of the following terms:

     one-electron contribution =    -714.16654041 Ry
     hartree contribution      =     656.31743159 Ry
     xc contribution           =    -737.91874853 Ry
     ewald contribution        =   -2196.78933708 Ry
     Hubbard energy            =       0.43587995 Ry
     one-center paw contrib.   =  -11701.86798514 Ry

     total magnetization       =    -0.00 Bohr mag/cell
     absolute magnetization    =    37.47 Bohr mag/cell

     convergence has been achieved in  85 iterations

     Writing output data file mnau2.save/

     General routines

     Parallel routines

     Hubbard U routines

       1h

   This run was terminated on:   1:55:47   9Apr2019

   JOB DONE.