     Program PWSCF v.6.3MaX starts on  7Apr2019 at 22:51:18

     R & G space division:  proc/nbgrp/npool/nimage =      32
     Waiting for input...
     Reading input from standard input

     Current dimensions of program PWSCF are:
     Max number of different atomic species (ntypx) = 10
     Max number of k-points (npk) =  40000
     Max angular momentum in pseudopotentials (lmaxx) =  3
               file Mn.pbe-spn-kjpaw_psl.0.3.1.UPF: wavefunction(s)  3P 3D renormalized
               file Au.pbe-dn-kjpaw_psl.0.1.UPF: wavefunction(s)  6S 6P 5D renormalized

     Found symmetry operation: I + ( -0.5000 -0.5000  0.1250)
     This is a supercell, fractional translations are disabled

     bravais-lattice index     =            0
     lattice parameter (alat)  =       6.4153  a.u.
     unit-cell volume          =    2724.7774 (a.u.)^3
     number of atoms/cell      =           24
     number of atomic types    =            2
     number of electrons       =       296.00
     number of Kohn-Sham states=          178
     kinetic-energy cutoff     =      45.0000  Ry
     charge density cutoff     =     400.0000  Ry
     convergence threshold     =      1.0E-06
     mixing beta               =       0.1000
     number of iterations used =            8  plain     mixing
     Exchange-correlation      = SLA PW PBX PBC ( 1  4  3  4 0 0)

     celldm(1)=   6.415315  celldm(2)=   0.000000  celldm(3)=   0.000000
     celldm(4)=   0.000000  celldm(5)=   0.000000  celldm(6)=   0.000000

     crystal axes: (cart. coord. in units of alat)
               a(1) = (   1.000000   0.000000   0.000000 )
               a(2) = (   0.000000   1.000000   0.000000 )
               a(3) = (   0.000000   0.000000  10.319937 )

     reciprocal axes: (cart. coord. in units 2 pi/alat)
               b(1) = (  1.000000  0.000000  0.000000 )
               b(2) = (  0.000000  1.000000  0.000000 )
               b(3) = (  0.000000  0.000000  0.096900 )

     PseudoPot. # 1 for Mn read from file:
     ./pseudo/Mn.pbe-spn-kjpaw_psl.0.3.1.UPF
     MD5 check sum: 7b43a3fb0e93e198b8dd8488d8cf503e
     Pseudo is Projector augmented-wave + core cor, Zval = 15.0
     Generated using "atomic" code by A. Dal Corso v.5.0.99 svn rev. 10869
     Shape of augmentation charge: PSQ
     Using radial grid of 1187 points,  6 beta functions with:
                l(1) =   0
                l(2) =   0
                l(3) =   1
                l(4) =   1
                l(5) =   2
                l(6) =   2
     Q(r) pseudized with 0 coefficients

     PseudoPot. # 2 for Au read from file:
     ./pseudo/Au.pbe-dn-kjpaw_psl.0.1.UPF
     MD5 check sum: be11e2e8e535ebe2b3ccfb4f88f554cb
     Pseudo is Projector augmented-wave + core cor, Zval = 11.0
     Generated using "atomic" code by A. Dal Corso v.5.0.2 svn rev. 9415
     Shape of augmentation charge: PSQ
     Using radial grid of 1279 points,  6 beta functions with:
                l(1) =   0
                l(2) =   0
                l(3) =   1
                l(4) =   1
                l(5) =   2
                l(6) =   2
     Q(r) pseudized with 0 coefficients

     atomic species   valence    mass     pseudopotential
        Mn            15.00    54.93800     Mn( 1.00)
        Au            11.00   196.96600     Au( 1.00)

     Starting magnetic structure
     atomic species   magnetization
        Mn           0.800
        Au           0.000

     Full LDA+U calculation (l_max = 2) with parameters (eV):
     U(  1) =   3.1200   J(  1) =   0.7000   B(  1) =   0.0803

     16 Sym. Ops., with inversion, found

   Cartesian axes

     site n.     atom                  positions (alat units)
         1           Mn  tau(   1) = (   0.0000000   0.0000000   0.0000000  )
         2           Mn  tau(   2) = (   0.5000000   0.5000000   1.2899921  )
         3           Mn  tau(   3) = (   0.0000000   0.0000000   2.5799843  )
         4           Mn  tau(   4) = (   0.5000000   0.5000000   3.8699764  )
         5           Mn  tau(   5) = (   0.0000000   0.0000000   5.1599686  )
         6           Mn  tau(   6) = (   0.5000000   0.5000000   6.4499607  )
         7           Mn  tau(   7) = (   0.0000000   0.0000000   7.7399528  )
         8           Mn  tau(   8) = (   0.5000000   0.5000000   9.0299450  )
         9           Au  tau(   9) = (   0.5000000   0.5000000   0.4127975  )
        10           Au  tau(  10) = (   0.0000000   0.0000000   0.8771947  )
        11           Au  tau(  11) = (   0.0000000   0.0000000   1.7027896  )
        12           Au  tau(  12) = (   0.5000000   0.5000000   2.1671868  )
        13           Au  tau(  13) = (   0.5000000   0.5000000   2.9927818  )
        14           Au  tau(  14) = (   0.0000000   0.0000000   3.4571789  )
        15           Au  tau(  15) = (   0.0000000   0.0000000   4.2827739  )
        16           Au  tau(  16) = (   0.5000000   0.5000000   4.7471711  )
        17           Au  tau(  17) = (   0.5000000   0.5000000   5.5727660  )
        18           Au  tau(  18) = (   0.0000000   0.0000000   6.0371632  )
        19           Au  tau(  19) = (   0.0000000   0.0000000   6.8627582  )
        20           Au  tau(  20) = (   0.5000000   0.5000000   7.3271553  )
        21           Au  tau(  21) = (   0.5000000   0.5000000   8.1527503  )
        22           Au  tau(  22) = (   0.0000000   0.0000000   8.6171475  )
        23           Au  tau(  23) = (   0.0000000   0.0000000   9.4427424  )
        24           Au  tau(  24) = (   0.5000000   0.5000000   9.9071396  )

     number of k points=    45 (tetrahedron method)
                       cart. coord. in units 2pi/alat
        k(    1) = (   0.0000000   0.0000000   0.0000000), wk =   0.0039062
        k(    2) = (   0.0000000   0.0000000   0.0242250), wk =   0.0078125
        k(    3) = (   0.0000000   0.0000000  -0.0484499), wk =   0.0039062
        k(    4) = (   0.0000000   0.1250000   0.0000000), wk =   0.0156250
        k(    5) = (   0.0000000   0.1250000   0.0242250), wk =   0.0312500
        k(    6) = (   0.0000000   0.1250000  -0.0484499), wk =   0.0156250
        k(    7) = (   0.0000000   0.2500000   0.0000000), wk =   0.0156250
        k(    8) = (   0.0000000   0.2500000   0.0242250), wk =   0.0312500
        k(    9) = (   0.0000000   0.2500000  -0.0484499), wk =   0.0156250
        k(   10) = (   0.0000000   0.3750000   0.0000000), wk =   0.0156250
        k(   11) = (   0.0000000   0.3750000   0.0242250), wk =   0.0312500
        k(   12) = (   0.0000000   0.3750000  -0.0484499), wk =   0.0156250
        k(   13) = (   0.0000000  -0.5000000   0.0000000), wk =   0.0078125
        k(   14) = (   0.0000000  -0.5000000   0.0242250), wk =   0.0156250
        k(   15) = (   0.0000000  -0.5000000  -0.0484499), wk =   0.0078125
        k(   16) = (   0.1250000   0.1250000   0.0000000), wk =   0.0156250
        k(   17) = (   0.1250000   0.1250000   0.0242250), wk =   0.0312500
        k(   18) = (   0.1250000   0.1250000  -0.0484499), wk =   0.0156250
        k(   19) = (   0.1250000   0.2500000   0.0000000), wk =   0.0312500
        k(   20) = (   0.1250000   0.2500000   0.0242250), wk =   0.0625000
        k(   21) = (   0.1250000   0.2500000  -0.0484499), wk =   0.0312500
        k(   22) = (   0.1250000   0.3750000   0.0000000), wk =   0.0312500
        k(   23) = (   0.1250000   0.3750000   0.0242250), wk =   0.0625000
        k(   24) = (   0.1250000   0.3750000  -0.0484499), wk =   0.0312500
        k(   25) = (   0.1250000  -0.5000000   0.0000000), wk =   0.0156250
        k(   26) = (   0.1250000  -0.5000000   0.0242250), wk =   0.0312500
        k(   27) = (   0.1250000  -0.5000000  -0.0484499), wk =   0.0156250
        k(   28) = (   0.2500000   0.2500000   0.0000000), wk =   0.0156250
        k(   29) = (   0.2500000   0.2500000   0.0242250), wk =   0.0312500
        k(   30) = (   0.2500000   0.2500000  -0.0484499), wk =   0.0156250
        k(   31) = (   0.2500000   0.3750000   0.0000000), wk =   0.0312500
        k(   32) = (   0.2500000   0.3750000   0.0242250), wk =   0.0625000
        k(   33) = (   0.2500000   0.3750000  -0.0484499), wk =   0.0312500
        k(   34) = (   0.2500000  -0.5000000   0.0000000), wk =   0.0156250
        k(   35) = (   0.2500000  -0.5000000   0.0242250), wk =   0.0312500
        k(   36) = (   0.2500000  -0.5000000  -0.0484499), wk =   0.0156250
        k(   37) = (   0.3750000   0.3750000   0.0000000), wk =   0.0156250
        k(   38) = (   0.3750000   0.3750000   0.0242250), wk =   0.0312500
        k(   39) = (   0.3750000   0.3750000  -0.0484499), wk =   0.0156250
        k(   40) = (   0.3750000  -0.5000000   0.0000000), wk =   0.0156250
        k(   41) = (   0.3750000  -0.5000000   0.0242250), wk =   0.0312500
        k(   42) = (   0.3750000  -0.5000000  -0.0484499), wk =   0.0156250
        k(   43) = (  -0.5000000  -0.5000000   0.0000000), wk =   0.0039062
        k(   44) = (  -0.5000000  -0.5000000   0.0242250), wk =   0.0078125
        k(   45) = (  -0.5000000  -0.5000000  -0.0484499), wk =   0.0039062

     Check: negative/imaginary core charge=   -0.000006    0.000000

     Initial potential from superposition of free atoms

     starting charge  295.99426, renormalised to  296.00000
     Number of +U iterations with fixed ns =  0
     Starting occupations:
 --- enter write_ns ---
 LDA+U parameters:
U(  1) =   3.1200   J(  1) =   0.7000   B(  1) =   0.0803
atom    1   Tr[ns(na)] (up, down, total) =   5.00000  0.00000  5.00000
   spin  1
    eigenvalues:
  1.000  1.000  1.000  1.000  1.000
    eigenvectors:
  1.000  0.000  0.000  0.000  0.000
  0.000  1.000  0.000  0.000  0.000
  0.000  0.000  1.000  0.000  0.000
  0.000  0.000  0.000  1.000  0.000
  0.000  0.000  0.000  0.000  1.000
    occupations:
  1.000  0.000  0.000  0.000  0.000
  0.000  1.000  0.000  0.000  0.000
  0.000  0.000  1.000  0.000  0.000
  0.000  0.000  0.000  1.000  0.000
  0.000  0.000  0.000  0.000  1.000
   spin  2
    eigenvalues:
  0.000  0.000  0.000  0.000  0.000
    eigenvectors:
  1.000  0.000  0.000  0.000  0.000
  0.000  1.000  0.000  0.000  0.000
  0.000  0.000  1.000  0.000  0.000
  0.000  0.000  0.000  1.000  0.000
  0.000  0.000  0.000  0.000  1.000
    occupations:
  0.000  0.000  0.000  0.000  0.000
  0.000  0.000  0.000  0.000  0.000
  0.000  0.000  0.000  0.000  0.000
  0.000  0.000  0.000  0.000  0.000
  0.000  0.000  0.000  0.000  0.000
atomic mag. moment =     5.000000
atom    2   Tr[ns(na)] (up, down, total) =   5.00000  0.00000  5.00000
   spin  1
    eigenvalues:
  1.000  1.000  1.000  1.000  1.000
    eigenvectors:
  1.000  0.000  0.000  0.000  0.000
  0.000  1.000  0.000  0.000  0.000
  0.000  0.000  1.000  0.000  0.000
  0.000  0.000  0.000  1.000  0.000
  0.000  0.000  0.000  0.000  1.000
    occupations:
  1.000  0.000  0.000  0.000  0.000
  0.000  1.000  0.000  0.000  0.000
  0.000  0.000  1.000  0.000  0.000
  0.000  0.000  0.000  1.000  0.000
  0.000  0.000  0.000  0.000  1.000
   spin  2
    eigenvalues:
  0.000  0.000  0.000  0.000  0.000
    eigenvectors:
  1.000  0.000  0.000  0.000  0.000
  0.000  1.000  0.000  0.000  0.000
  0.000  0.000  1.000  0.000  0.000
[...]
 -0.000  1.003 -0.000  0.000  0.000
 -0.000 -0.000  1.003  0.000  0.000
  0.000  0.000  0.000  1.004 -0.000
  0.000  0.000  0.000 -0.000  1.003
   spin  2
    eigenvalues:
  0.053  0.073  0.081  0.081  0.116
    eigenvectors:
  0.000  1.000  0.000  0.000  0.000
  0.000  0.000  0.280  0.720  0.000
  0.000  0.000  0.720  0.280  0.000
  1.000  0.000  0.000  0.000  0.000
  0.000  0.000  0.000  0.000  1.000
    occupations:
  0.073 -0.000 -0.000  0.000  0.000
 -0.000  0.081 -0.000  0.000  0.000
 -0.000 -0.000  0.081  0.000  0.000
  0.000  0.000  0.000  0.053 -0.000
  0.000  0.000  0.000 -0.000  0.116
atomic mag. moment =     4.614354
N of occupied +U levels =   43.365050
 --- exit write_ns ---

     total energy              =  -14687.26434646 Ry
     Harris-Foulkes estimate   =  -14685.79828799 Ry
     estimated scf accuracy    <      11.51198497 Ry

     total magnetization       =    40.41 Bohr mag/cell
     absolute magnetization    =    41.47 Bohr mag/cell

     iteration #  2     ecut=    45.00 Ry     beta= 0.10
     Davidson diagonalization with overlap
     ethr =  3.89E-03,  avg # of iterations =  1.0

[...]

     iteration # 13     ecut=    45.00 Ry     beta= 0.10
     Davidson diagonalization with overlap
     c_bands:  1 eigenvalues not converged
     ethr =  1.33E-05,  avg # of iterations =  3.0

[...]

     iteration # 14     ecut=    45.00 Ry     beta= 0.10
     Davidson diagonalization with overlap
     c_bands:  1 eigenvalues not converged
     ethr =  1.97E-06,  avg # of iterations =  4.3

[...]

     total energy              =  -14694.01150129 Ry
     Harris-Foulkes estimate   =  -14694.01150119 Ry
     estimated scf accuracy    <       0.00000232 Ry

[...]

     iteration # 36     ecut=    45.00 Ry     beta= 0.10
     Davidson diagonalization with overlap
     ethr =  5.97E-10,  avg # of iterations =  1.0

     Magnetic moment per site:
     atom:    1    charge:   13.5543    magn:    4.1901    constr:    0.0000
     atom:    2    charge:   13.5546    magn:    4.1904    constr:    0.0000
     atom:    3    charge:   13.5542    magn:    4.1909    constr:    0.0000
     atom:    4    charge:   13.5541    magn:    4.1912    constr:    0.0000
     atom:    5    charge:   13.5542    magn:    4.1914    constr:    0.0000
     atom:    6    charge:   13.5541    magn:    4.1912    constr:    0.0000
     atom:    7    charge:   13.5542    magn:    4.1909    constr:    0.0000
     atom:    8    charge:   13.5546    magn:    4.1904    constr:    0.0000
     atom:    9    charge:    9.1208    magn:    0.0245    constr:    0.0000
     atom:   10    charge:    9.1207    magn:    0.0243    constr:    0.0000
     atom:   11    charge:    9.1208    magn:    0.0246    constr:    0.0000
     atom:   12    charge:    9.1208    magn:    0.0247    constr:    0.0000
     atom:   13    charge:    9.1206    magn:    0.0247    constr:    0.0000
     atom:   14    charge:    9.1209    magn:    0.0249    constr:    0.0000
     atom:   15    charge:    9.1210    magn:    0.0246    constr:    0.0000
     atom:   16    charge:    9.1206    magn:    0.0245    constr:    0.0000
     atom:   17    charge:    9.1206    magn:    0.0245    constr:    0.0000
     atom:   18    charge:    9.1210    magn:    0.0246    constr:    0.0000
     atom:   19    charge:    9.1209    magn:    0.0249    constr:    0.0000
     atom:   20    charge:    9.1206    magn:    0.0247    constr:    0.0000
     atom:   21    charge:    9.1208    magn:    0.0247    constr:    0.0000
     atom:   22    charge:    9.1208    magn:    0.0246    constr:    0.0000
     atom:   23    charge:    9.1207    magn:    0.0243    constr:    0.0000
     atom:   24    charge:    9.1208    magn:    0.0245    constr:    0.0000

     End of self-consistent calculation
 --- enter write_ns ---
 LDA+U parameters:
U(  1) =   3.1200   J(  1) =   0.7000   B(  1) =   0.0803
atom    1   Tr[ns(na)] (up, down, total) =   4.96828  0.77146  5.73974
   spin  1
    eigenvalues:
  0.984  0.993  0.993  0.996  1.002
    eigenvectors:
  0.000  0.000  0.000  1.000  0.000
  0.000  0.280  0.720  0.000  0.000
  0.000  0.720  0.280  0.000  0.000
  0.000  0.000  0.000  0.000  1.000
  1.000  0.000  0.000  0.000  0.000
    occupations:
  0.996 -0.000 -0.000  0.000  0.000
 -0.000  0.993 -0.000  0.000  0.000
 -0.000 -0.000  0.993  0.000  0.000
  0.000  0.000  0.000  1.002 -0.000
  0.000  0.000  0.000 -0.000  0.984
   spin  2
    eigenvalues:
  0.065  0.145  0.145  0.148  0.268
    eigenvectors:
  0.000  0.000  0.000  1.000  0.000
  0.000  0.345  0.655  0.000  0.000
  0.000  0.655  0.345  0.000  0.000
  1.000  0.000  0.000  0.000  0.000
  0.000  0.000  0.000  0.000  1.000
    occupations:
  0.148 -0.000 -0.000  0.000  0.000
 -0.000  0.145 -0.000  0.000  0.000
 -0.000 -0.000  0.145  0.000  0.000
  0.000  0.000  0.000  0.065 -0.000
  0.000  0.000  0.000 -0.000  0.268
atomic mag. moment =     4.196825
atom    2   Tr[ns(na)] (up, down, total) =   4.96852  0.77135  5.73987
   spin  1
    eigenvalues:
  0.984  0.993  0.993  0.996  1.002
    eigenvectors:
  0.000  0.000  0.000  1.000  0.000
  0.000  0.291  0.709  0.000  0.000
  0.000  0.709  0.291  0.000  0.000
  0.000  0.000  0.000  0.000  1.000
  1.000  0.000  0.000  0.000  0.000
    occupations:
  0.996 -0.000 -0.000  0.000  0.000
 -0.000  0.993 -0.000  0.000  0.000
 -0.000 -0.000  0.993  0.000  0.000
  0.000  0.000  0.000  1.002 -0.000
  0.000  0.000  0.000 -0.000  0.984
   spin  2
    eigenvalues:
  0.065  0.145  0.145  0.148  0.268
    eigenvectors:
  0.000  0.000  0.000  1.000  0.000
  0.000  0.340  0.660  0.000  0.000
  0.000  0.660  0.340  0.000  0.000
  1.000  0.000  0.000  0.000  0.000
  0.000  0.000  0.000  0.000  1.000
    occupations:
  0.148 -0.000 -0.000  0.000  0.000
 -0.000  0.145 -0.000  0.000  0.000
 -0.000 -0.000  0.145  0.000  0.000
  0.000  0.000  0.000  0.065 -0.000
  0.000  0.000  0.000 -0.000  0.268
atomic mag. moment =     4.197165
atom    3   Tr[ns(na)] (up, down, total) =   4.96834  0.77082  5.73917
   spin  1
    eigenvalues:
  0.984  0.993  0.993  0.996  1.002
    eigenvectors:
  0.000  0.000  0.000  1.000  0.000
  0.000  0.336  0.664  0.000  0.000
  0.000  0.664  0.336  0.000  0.000
  0.000  0.000  0.000  0.000  1.000
  1.000  0.000  0.000  0.000  0.000
    occupations:
  0.996 -0.000 -0.000  0.000  0.000
 -0.000  0.993 -0.000  0.000  0.000
 -0.000 -0.000  0.993  0.000  0.000
  0.000  0.000  0.000  1.002 -0.000
  0.000  0.000  0.000 -0.000  0.984
   spin  2
    eigenvalues:
  0.065  0.145  0.145  0.148  0.268
    eigenvectors:
  0.000  0.000  0.000  1.000  0.000
  0.000  0.321  0.679  0.000  0.000
  0.000  0.679  0.321  0.000  0.000
  1.000  0.000  0.000  0.000  0.000
  0.000  0.000  0.000  0.000  1.000
    occupations:
  0.148 -0.000 -0.000  0.000  0.000
 -0.000  0.145 -0.000  0.000  0.000
 -0.000 -0.000  0.145  0.000  0.000
  0.000  0.000  0.000  0.065 -0.000
  0.000  0.000  0.000 -0.000  0.268
atomic mag. moment =     4.197523
atom    4   Tr[ns(na)] (up, down, total) =   4.96850  0.77059  5.73909
   spin  1
    eigenvalues:
  0.984  0.993  0.993  0.996  1.002
    eigenvectors:
  0.000  0.000  0.000  1.000  0.000
  0.000  0.289  0.711  0.000  0.000
  0.000  0.711  0.289  0.000  0.000
  0.000  0.000  0.000  0.000  1.000
  1.000  0.000  0.000  0.000  0.000
    occupations:
  0.996 -0.000 -0.000  0.000  0.000
 -0.000  0.993 -0.000  0.000  0.000
 -0.000 -0.000  0.993  0.000  0.000
  0.000  0.000  0.000  1.002 -0.000
  0.000  0.000  0.000 -0.000  0.984
   spin  2
    eigenvalues:
  0.065  0.145  0.145  0.148  0.267
    eigenvectors:
  0.000  0.000  0.000  1.000  0.000
  0.000  0.309  0.691  0.000  0.000
  0.000  0.691  0.309  0.000  0.000
  1.000  0.000  0.000  0.000  0.000
  0.000  0.000  0.000  0.000  1.000
    occupations:
  0.148 -0.000 -0.000  0.000  0.000
 -0.000  0.145 -0.000  0.000  0.000
 -0.000 -0.000  0.145  0.000  0.000
  0.000  0.000  0.000  0.065 -0.000
  0.000  0.000  0.000 -0.000  0.267
atomic mag. moment =     4.197908
atom    5   Tr[ns(na)] (up, down, total) =   4.96847  0.77046  5.73893
   spin  1
    eigenvalues:
  0.984  0.993  0.993  0.996  1.002
    eigenvectors:
  0.000  0.000  0.000  1.000  0.000
  0.000  0.391  0.609  0.000  0.000
  0.000  0.609  0.391  0.000  0.000
  0.000  0.000  0.000  0.000  1.000
  1.000  0.000  0.000  0.000  0.000
    occupations:
  0.996 -0.000 -0.000  0.000  0.000
 -0.000  0.993 -0.000  0.000  0.000
 -0.000 -0.000  0.993  0.000  0.000
  0.000  0.000  0.000  1.002 -0.000
  0.000  0.000  0.000 -0.000  0.984
   spin  2
    eigenvalues:
  0.065  0.145  0.145  0.148  0.268
    eigenvectors:
  0.000  0.000  0.000  1.000  0.000
  0.000  0.325  0.675  0.000  0.000
  0.000  0.675  0.325  0.000  0.000
  1.000  0.000  0.000  0.000  0.000
  0.000  0.000  0.000  0.000  1.000
    occupations:
  0.148 -0.000 -0.000  0.000  0.000
 -0.000  0.145 -0.000  0.000  0.000
 -0.000 -0.000  0.145  0.000  0.000
  0.000  0.000  0.000  0.065 -0.000
  0.000  0.000  0.000 -0.000  0.268
atomic mag. moment =     4.198015
atom    6   Tr[ns(na)] (up, down, total) =   4.96850  0.77059  5.73909
   spin  1
    eigenvalues:
  0.984  0.993  0.993  0.996  1.002
    eigenvectors:
  0.000  0.000  0.000  1.000  0.000
  0.000  0.298  0.702  0.000  0.000
  0.000  0.702  0.298  0.000  0.000
  0.000  0.000  0.000  0.000  1.000
  1.000  0.000  0.000  0.000  0.000
    occupations:
  0.996 -0.000 -0.000  0.000  0.000
 -0.000  0.993 -0.000  0.000  0.000
 -0.000 -0.000  0.993  0.000  0.000
  0.000  0.000  0.000  1.002 -0.000
  0.000  0.000  0.000 -0.000  0.984
   spin  2
    eigenvalues:
  0.065  0.145  0.145  0.148  0.267
    eigenvectors:
  0.000  0.000  0.000  1.000  0.000
  0.000  0.323  0.677  0.000  0.000
  0.000  0.677  0.323  0.000  0.000
  1.000  0.000  0.000  0.000  0.000
  0.000  0.000  0.000  0.000  1.000
    occupations:
  0.148 -0.000 -0.000  0.000  0.000
 -0.000  0.145 -0.000  0.000  0.000
 -0.000 -0.000  0.145  0.000  0.000
  0.000  0.000  0.000  0.065 -0.000
  0.000  0.000  0.000 -0.000  0.267
atomic mag. moment =     4.197908
atom    7   Tr[ns(na)] (up, down, total) =   4.96834  0.77082  5.73917
   spin  1
    eigenvalues:
  0.984  0.993  0.993  0.996  1.002
    eigenvectors:
  0.000  0.000  0.000  1.000  0.000
  0.000  0.268  0.732  0.000  0.000
  0.000  0.732  0.268  0.000  0.000
  0.000  0.000  0.000  0.000  1.000
  1.000  0.000  0.000  0.000  0.000
    occupations:
  0.996 -0.000 -0.000  0.000  0.000
 -0.000  0.993 -0.000  0.000  0.000
 -0.000 -0.000  0.993  0.000  0.000
  0.000  0.000  0.000  1.002 -0.000
  0.000  0.000  0.000 -0.000  0.984
   spin  2
    eigenvalues:
  0.065  0.145  0.145  0.148  0.268
    eigenvectors:
  0.000  0.000  0.000  1.000  0.000
  0.000  0.281  0.719  0.000  0.000
  0.000  0.719  0.281  0.000  0.000
  1.000  0.000  0.000  0.000  0.000
  0.000  0.000  0.000  0.000  1.000
    occupations:
  0.148 -0.000 -0.000  0.000  0.000
 -0.000  0.145 -0.000  0.000  0.000
 -0.000 -0.000  0.145  0.000  0.000
  0.000  0.000  0.000  0.065 -0.000
  0.000  0.000  0.000 -0.000  0.268
atomic mag. moment =     4.197523
atom    8   Tr[ns(na)] (up, down, total) =   4.96852  0.77135  5.73987
   spin  1
    eigenvalues:
  0.984  0.993  0.993  0.996  1.002
    eigenvectors:
  0.000  0.000  0.000  1.000  0.000
  0.000  0.332  0.668  0.000  0.000
  0.000  0.668  0.332  0.000  0.000
  0.000  0.000  0.000  0.000  1.000
  1.000  0.000  0.000  0.000  0.000
    occupations:
  0.996 -0.000 -0.000  0.000  0.000
 -0.000  0.993 -0.000  0.000  0.000
 -0.000 -0.000  0.993  0.000  0.000
  0.000  0.000  0.000  1.002 -0.000
  0.000  0.000  0.000 -0.000  0.984
   spin  2
    eigenvalues:
  0.065  0.145  0.145  0.148  0.268
    eigenvectors:
  0.000  0.000  0.000  1.000  0.000
  0.000  0.287  0.713  0.000  0.000
  0.000  0.713  0.287  0.000  0.000
  1.000  0.000  0.000  0.000  0.000
  0.000  0.000  0.000  0.000  1.000
    occupations:
  0.148 -0.000 -0.000  0.000  0.000
 -0.000  0.145 -0.000  0.000  0.000
 -0.000 -0.000  0.145  0.000  0.000
  0.000  0.000  0.000  0.065 -0.000
  0.000  0.000  0.000 -0.000  0.268
atomic mag. moment =     4.197165
N of occupied +U levels =   45.914937
 --- exit write_ns ---

 ------ SPIN UP ------------

          k = 0.0000 0.0000 0.0000 ( 13925 PWs)   bands (ev):

   -66.6545 -66.6528 -66.6528 -66.6525 -66.6525 -66.6513 -66.6507 -66.6507
   -35.4272 -35.4252 -35.4252 -35.4251 -35.4251 -35.4239 -35.4232 -35.4232
   -35.3726 -35.3726 -35.3713 -35.3713 -35.3713 -35.3713 -35.3708 -35.3708
   -35.3708 -35.3708 -35.3695 -35.3695 -35.3693 -35.3693 -35.3692 -35.3692
     5.7056   5.8578   5.8578   6.2978   6.2979   6.9707   6.9708   7.6041
     8.0981   8.3087   8.3101   8.3766   8.3766   8.4122   8.4123   8.5757
     8.5759   8.7203   8.7206   8.7559   8.7560   8.8930   8.8931   9.1304
     9.1304   9.2623   9.3623   9.4047   9.4049   9.4195   9.6365   9.6829
     9.6829   9.8004   9.8005   9.8402   9.8937   9.8938  10.0513  10.0516
    10.1143  10.1143  10.1641  10.1641  10.1642  10.1642  10.3039  10.3039
    10.3177  10.3179  10.3222  10.3222  10.3222  10.3222  10.5650  10.5650
    10.5859  10.5859  10.5859  10.5859  10.6003  10.6003  10.6005  10.6005
    10.6293  10.6426  10.6850  10.6850  10.6859  10.6859  10.7335  10.7335
    10.7877  10.7877  10.7879  10.7879  10.8286  10.8286  11.0248  11.0248
    11.0263  11.0265  11.1282  11.1471  11.1471  11.2214  11.2215  11.2328
    11.3750  11.4492  11.4493  11.4875  11.4880  11.6060  11.6060  11.6061
    11.6061  11.7021  11.7023  11.8741  11.8742  11.8877  11.8878  11.9915
    11.9916  12.1696  12.1696  12.1703  12.1703  12.1707  12.1707  12.2172
    12.2294  12.2346  12.3434  12.6311  12.6312  12.6450  12.6450  12.6451
    12.6451  12.8024  12.8389  12.8389  12.8940  12.8943  13.0602  13.0603
    13.1170  13.3181  13.3181  14.2839  14.2842  15.6182  15.6183  17.1248
    17.5271  19.2964  19.2966  19.9750  19.9750  20.3258  20.3258  20.3258
    20.3258  21.2694

[...]

          k =-0.5000-0.5000 0.0000 ( 13964 PWs)   bands (ev):

[...]

 ------ SPIN DOWN ----------

[...]

          k = 0.3750-0.5000-0.0484 ( 13940 PWs)   bands (ev):

[...]

          k =-0.5000-0.5000-0.0484 ( 13992 PWs)   bands (ev):

   -62.1017 -62.1000 -62.1000 -62.0997 -62.0997 -62.0996 -62.0985 -62.0985
   -30.9354 -30.9354 -30.9337 -30.9337 -30.9337 -30.9337 -30.9334 -30.9334
   -30.9332 -30.9332 -30.9332 -30.9332 -30.9321 -30.9321 -30.9321 -30.9321
   -30.9306 -30.9292 -30.9292 -30.9289 -30.9289 -30.9285 -30.9282 -30.9282
     8.5095   8.5097   8.5109   8.5110   8.6958   8.6960   8.6972   8.6973
     9.0756   9.0758   9.0768   9.0770   9.2769   9.2769   9.2770   9.2770
     9.3730   9.3732   9.3741   9.3744   9.3760   9.3760   9.3761   9.3761
     9.5749   9.5749   9.5750   9.5750   9.8719   9.8719   9.8720   9.8720
    10.2734  10.2734  10.2734  10.2734  10.5591  10.5593  10.5602  10.5602
    10.6719  10.6721  10.6729  10.6729  10.7412  10.7412  10.7413  10.7413
    11.2338  11.2338  11.2338  11.2338  11.6052  11.6052  11.6052  11.6052
    11.9661  11.9661  11.9662  11.9663  11.9663  11.9666  11.9667  11.9667
    12.0583  12.0583  12.0584  12.0585  12.0585  12.0588  12.0588  12.0589
    12.1865  12.1867  12.1868  12.1869  12.2104  12.2106  12.2106  12.2107
    13.3624  13.3627  13.3638  13.3640  13.3849  13.3852  13.3862  13.3865
    14.0188  14.0188  14.0189  14.0189  14.3250  14.3250  14.3250  14.3250
    14.6460  14.6460  14.6460  14.6460  14.8239  14.8239  14.8243  14.8243
    16.7451  16.7453  16.7453  16.7458  16.9484  16.9485  16.9487  16.9492
    17.0697  17.0697  17.0705  17.0705  17.4219  17.4219  17.4219  17.4219
    17.8672  17.8674  17.8677  17.8678  18.1248  18.1248  18.1248  18.1248
    18.1551  18.1566  18.1566  18.1569  18.1569  18.1572  18.1578  18.1578
    18.4362  18.4363  18.4364  18.4365  18.8786  18.8787  18.8799  18.8799
    19.0192  19.0207

     the Fermi energy is    15.1935 ev

!    total energy              =  -14694.01150220 Ry
     Harris-Foulkes estimate   =  -14694.01150188 Ry
     estimated scf accuracy    <       0.00000084 Ry

     total all-electron energy =   -626921.607224 Ry

     The total energy is the sum of the following terms:

     one-electron contribution =    -714.86043945 Ry
     hartree contribution      =     656.82431265 Ry
     xc contribution           =    -737.83986049 Ry
     ewald contribution        =   -2196.78933708 Ry
     Hubbard energy            =       0.46691241 Ry
     one-center paw contrib.   =  -11701.81309023 Ry

     total magnetization       =    34.20 Bohr mag/cell
     absolute magnetization    =    36.86 Bohr mag/cell

     convergence has been achieved in  36 iterations

     Writing output data file mnau2.save/

     General routines

     Parallel routines

     Hubbard U routines

      41h

   This run was terminated on:   0:32:30   8Apr2019

   JOB DONE.