     Program PWSCF v.6.3MaX starts on  8Apr2019 at  1:57:57

     R & G space division:  proc/nbgrp/npool/nimage =      32
     Waiting for input...
     Reading input from standard input

     Current dimensions of program PWSCF are:
     Max number of different atomic species (ntypx) = 10
     Max number of k-points (npk) =  40000
     Max angular momentum in pseudopotentials (lmaxx) =  3
               file Mn.pbe-spn-kjpaw_psl.0.3.1.UPF: wavefunction(s)  3P 3D renormalized
               file Mn.pbe-spn-kjpaw_psl.0.3.1.UPF: wavefunction(s)  3P 3D renormalized
               file Au.pbe-dn-kjpaw_psl.0.1.UPF: wavefunction(s)  6S 6P 5D renormalized

     bravais-lattice index     =            0
     lattice parameter (alat)  =       6.4153  a.u.
     unit-cell volume          =    2724.7774 (a.u.)^3
     number of atoms/cell      =           24
     number of atomic types    =            3
     number of electrons       =       296.00
     number of Kohn-Sham states=          178
     kinetic-energy cutoff     =      45.0000  Ry
     charge density cutoff     =     400.0000  Ry
     convergence threshold     =      1.0E-06
     mixing beta               =       0.1000
     number of iterations used =            8  plain     mixing
     Exchange-correlation      = SLA PW PBX PBC ( 1  4  3  4 0 0)

     celldm(1)=   6.415315  celldm(2)=   0.000000  celldm(3)=   0.000000
     celldm(4)=   0.000000  celldm(5)=   0.000000  celldm(6)=   0.000000

     crystal axes: (cart. coord. in units of alat)
               a(1) = (   1.000000   0.000000   0.000000 )
               a(2) = (   0.000000   1.000000   0.000000 )
               a(3) = (   0.000000   0.000000  10.319937 )

     reciprocal axes: (cart. coord. in units 2 pi/alat)
               b(1) = (  1.000000  0.000000  0.000000 )
               b(2) = (  0.000000  1.000000  0.000000 )
               b(3) = (  0.000000  0.000000  0.096900 )

     PseudoPot. # 1 for Mn read from file:
     ./pseudo/Mn.pbe-spn-kjpaw_psl.0.3.1.UPF
     MD5 check sum: 7b43a3fb0e93e198b8dd8488d8cf503e
     Pseudo is Projector augmented-wave + core cor, Zval = 15.0
     Generated using "atomic" code by A. Dal Corso v.5.0.99 svn rev. 10869
     Shape of augmentation charge: PSQ
     Using radial grid of 1187 points,  6 beta functions with:
                l(1) =   0
                l(2) =   0
                l(3) =   1
                l(4) =   1
                l(5) =   2
                l(6) =   2
     Q(r) pseudized with 0 coefficients

     PseudoPot. # 2 for Mn read from file:
     ./pseudo/Mn.pbe-spn-kjpaw_psl.0.3.1.UPF
     MD5 check sum: 7b43a3fb0e93e198b8dd8488d8cf503e
     Pseudo is Projector augmented-wave + core cor, Zval = 15.0
     Generated using "atomic" code by A. Dal Corso v.5.0.99 svn rev. 10869
     Shape of augmentation charge: PSQ
     Using radial grid of 1187 points,  6 beta functions with:
                l(1) =   0
                l(2) =   0
                l(3) =   1
                l(4) =   1
                l(5) =   2
                l(6) =   2
     Q(r) pseudized with 0 coefficients

     PseudoPot. # 3 for Au read from file:
     ./pseudo/Au.pbe-dn-kjpaw_psl.0.1.UPF
     MD5 check sum: be11e2e8e535ebe2b3ccfb4f88f554cb
     Pseudo is Projector augmented-wave + core cor, Zval = 11.0
     Generated using "atomic" code by A. Dal Corso v.5.0.2 svn rev. 9415
     Shape of augmentation charge: PSQ
     Using radial grid of 1279 points,  6 beta functions with:
                l(1) =   0
                l(2) =   0
                l(3) =   1
                l(4) =   1
                l(5) =   2
                l(6) =   2
     Q(r) pseudized with 0 coefficients

     atomic species   valence    mass     pseudopotential
        Mn1           15.00    54.93800     Mn( 1.00)
        Mn2           15.00    54.93800     Mn( 1.00)
        Au            11.00   196.96600     Au( 1.00)

     Starting magnetic structure
     atomic species   magnetization
        Mn1          0.800
        Mn2         -0.800
        Au           0.000

     Full LDA+U calculation (l_max = 2) with parameters (eV):
     U(  1) =   3.1200   J(  1) =   0.7000   B(  1) =   0.0803
     U(  2) =   3.1200   J(  2) =   0.7000   B(  2) =   0.0803

      8 Sym. Ops. (no inversion) found

   Cartesian axes

     site n.     atom                  positions (alat units)
         1           Mn1 tau(   1) = (   0.0000000   0.0000000   0.0000000  )
         2           Mn1 tau(   2) = (   0.5000000   0.5000000   1.2899921  )
         3           Mn1 tau(   3) = (   0.0000000   0.0000000   2.5799843  )
         4           Mn1 tau(   4) = (   0.5000000   0.5000000   3.8699764  )
         5           Mn1 tau(   5) = (   0.0000000   0.0000000   5.1599686  )
         6           Mn1 tau(   6) = (   0.5000000   0.5000000   6.4499607  )
         7           Mn2 tau(   7) = (   0.0000000   0.0000000   7.7399528  )
         8           Mn2 tau(   8) = (   0.5000000   0.5000000   9.0299450  )
         9           Au  tau(   9) = (   0.5000000   0.5000000   0.4127975  )
        10           Au  tau(  10) = (   0.0000000   0.0000000   0.8771947  )
        11           Au  tau(  11) = (   0.0000000   0.0000000   1.7027896  )
        12           Au  tau(  12) = (   0.5000000   0.5000000   2.1671868  )
        13           Au  tau(  13) = (   0.5000000   0.5000000   2.9927818  )
        14           Au  tau(  14) = (   0.0000000   0.0000000   3.4571789  )
        15           Au  tau(  15) = (   0.0000000   0.0000000   4.2827739  )
        16           Au  tau(  16) = (   0.5000000   0.5000000   4.7471711  )
        17           Au  tau(  17) = (   0.5000000   0.5000000   5.5727660  )
        18           Au  tau(  18) = (   0.0000000   0.0000000   6.0371632  )
        19           Au  tau(  19) = (   0.0000000   0.0000000   6.8627582  )
        20           Au  tau(  20) = (   0.5000000   0.5000000   7.3271553  )
        21           Au  tau(  21) = (   0.5000000   0.5000000   8.1527503  )
        22           Au  tau(  22) = (   0.0000000   0.0000000   8.6171475  )
        23           Au  tau(  23) = (   0.0000000   0.0000000   9.4427424  )
        24           Au  tau(  24) = (   0.5000000   0.5000000   9.9071396  )

     number of k points=    45 (tetrahedron method)
                       cart. coord. in units 2pi/alat
        k(    1) = (   0.0000000   0.0000000   0.0000000), wk =   0.0039062
        k(    2) = (   0.0000000   0.0000000   0.0242250), wk =   0.0078125
        k(    3) = (   0.0000000   0.0000000  -0.0484499), wk =   0.0039062
        k(    4) = (   0.0000000   0.1250000   0.0000000), wk =   0.0156250
        k(    5) = (   0.0000000   0.1250000   0.0242250), wk =   0.0312500
        k(    6) = (   0.0000000   0.1250000  -0.0484499), wk =   0.0156250
        k(    7) = (   0.0000000   0.2500000   0.0000000), wk =   0.0156250
        k(    8) = (   0.0000000   0.2500000   0.0242250), wk =   0.0312500
        k(    9) = (   0.0000000   0.2500000  -0.0484499), wk =   0.0156250
        k(   10) = (   0.0000000   0.3750000   0.0000000), wk =   0.0156250
        k(   11) = (   0.0000000   0.3750000   0.0242250), wk =   0.0312500
        k(   12) = (   0.0000000   0.3750000  -0.0484499), wk =   0.0156250
        k(   13) = (   0.0000000  -0.5000000   0.0000000), wk =   0.0078125
        k(   14) = (   0.0000000  -0.5000000   0.0242250), wk =   0.0156250
        k(   15) = (   0.0000000  -0.5000000  -0.0484499), wk =   0.0078125
        k(   16) = (   0.1250000   0.1250000   0.0000000), wk =   0.0156250
        k(   17) = (   0.1250000   0.1250000   0.0242250), wk =   0.0312500
        k(   18) = (   0.1250000   0.1250000  -0.0484499), wk =   0.0156250
        k(   19) = (   0.1250000   0.2500000   0.0000000), wk =   0.0312500
        k(   20) = (   0.1250000   0.2500000   0.0242250), wk =   0.0625000
        k(   21) = (   0.1250000   0.2500000  -0.0484499), wk =   0.0312500
        k(   22) = (   0.1250000   0.3750000   0.0000000), wk =   0.0312500
        k(   23) = (   0.1250000   0.3750000   0.0242250), wk =   0.0625000
        k(   24) = (   0.1250000   0.3750000  -0.0484499), wk =   0.0312500
        k(   25) = (   0.1250000  -0.5000000   0.0000000), wk =   0.0156250
        k(   26) = (   0.1250000  -0.5000000   0.0242250), wk =   0.0312500
        k(   27) = (   0.1250000  -0.5000000  -0.0484499), wk =   0.0156250
        k(   28) = (   0.2500000   0.2500000   0.0000000), wk =   0.0156250
        k(   29) = (   0.2500000   0.2500000   0.0242250), wk =   0.0312500
        k(   30) = (   0.2500000   0.2500000  -0.0484499), wk =   0.0156250
        k(   31) = (   0.2500000   0.3750000   0.0000000), wk =   0.0312500
        k(   32) = (   0.2500000   0.3750000   0.0242250), wk =   0.0625000
        k(   33) = (   0.2500000   0.3750000  -0.0484499), wk =   0.0312500
        k(   34) = (   0.2500000  -0.5000000   0.0000000), wk =   0.0156250
        k(   35) = (   0.2500000  -0.5000000   0.0242250), wk =   0.0312500
        k(   36) = (   0.2500000  -0.5000000  -0.0484499), wk =   0.0156250
        k(   37) = (   0.3750000   0.3750000   0.0000000), wk =   0.0156250
        k(   38) = (   0.3750000   0.3750000   0.0242250), wk =   0.0312500
        k(   39) = (   0.3750000   0.3750000  -0.0484499), wk =   0.0156250
        k(   40) = (   0.3750000  -0.5000000   0.0000000), wk =   0.0156250
        k(   41) = (   0.3750000  -0.5000000   0.0242250), wk =   0.0312500
        k(   42) = (   0.3750000  -0.5000000  -0.0484499), wk =   0.0156250
        k(   43) = (  -0.5000000  -0.5000000   0.0000000), wk =   0.0039062
        k(   44) = (  -0.5000000  -0.5000000   0.0242250), wk =   0.0078125
        k(   45) = (  -0.5000000  -0.5000000  -0.0484499), wk =   0.0039062

     Check: negative/imaginary core charge=   -0.000006    0.000000

     Initial potential from superposition of free atoms

     starting charge  295.99426, renormalised to  296.00000
     Number of +U iterations with fixed ns =  0
     Starting occupations:
 --- enter write_ns ---
 LDA+U parameters:
U(  1) =   3.1200   J(  1) =   0.7000   B(  1) =   0.0803
U(  2) =   3.1200   J(  2) =   0.7000   B(  2) =   0.0803
atom    1   Tr[ns(na)] (up, down, total) =   5.00000  0.00000  5.00000
   spin  1
    eigenvalues:
  1.000  1.000  1.000  1.000  1.000
    eigenvectors:
  1.000  0.000  0.000  0.000  0.000
  0.000  1.000  0.000  0.000  0.000
  0.000  0.000  1.000  0.000  0.000
  0.000  0.000  0.000  1.000  0.000
  0.000  0.000  0.000  0.000  1.000
    occupations:
  1.000  0.000  0.000  0.000  0.000
  0.000  1.000  0.000  0.000  0.000
  0.000  0.000  1.000  0.000  0.000
  0.000  0.000  0.000  1.000  0.000
  0.000  0.000  0.000  0.000  1.000
   spin  2
    eigenvalues:
  0.000  0.000  0.000  0.000  0.000
    eigenvectors:
  1.000  0.000  0.000  0.000  0.000
  0.000  1.000  0.000  0.000  0.000
  0.000  0.000  1.000  0.000  0.000
  0.000  0.000  0.000  1.000  0.000
  0.000  0.000  0.000  0.000  1.000
    occupations:
  0.000  0.000  0.000  0.000  0.000
  0.000  0.000  0.000  0.000  0.000
  0.000  0.000  0.000  0.000  0.000
  0.000  0.000  0.000  0.000  0.000
  0.000  0.000  0.000  0.000  0.000
atomic mag. moment =     5.000000
[...]
   spin  1
    eigenvalues:
  0.054  0.075  0.083  0.083  0.121
    eigenvectors:
  0.000  1.000  0.000  0.000  0.000
  0.000  0.000  0.322  0.678  0.000
  0.000  0.000  0.678  0.322  0.000
  1.000  0.000  0.000  0.000  0.000
  0.000  0.000  0.000  0.000  1.000
    occupations:
  0.075 -0.000 -0.000  0.000  0.000
 -0.000  0.083 -0.000  0.000  0.000
 -0.000 -0.000  0.083  0.000  0.000
  0.000  0.000  0.000  0.054 -0.000
  0.000  0.000  0.000 -0.000  0.121
   spin  2
    eigenvalues:
  1.003  1.003  1.003  1.004  1.004
    eigenvectors:
  0.000  0.000  0.000  1.000  0.000
  0.000  0.314  0.686  0.000  0.000
  0.000  0.686  0.314  0.000  0.000
  0.000  0.000  0.000  0.000  1.000
  1.000  0.000  0.000  0.000  0.000
    occupations:
  1.004 -0.000 -0.000  0.000  0.000
 -0.000  1.003 -0.000  0.000  0.000
 -0.000 -0.000  1.003  0.000  0.000
  0.000  0.000  0.000  1.004 -0.000
  0.000  0.000  0.000 -0.000  1.003
atomic mag. moment =    -4.602696
N of occupied +U levels =   43.394526
 --- exit write_ns ---

     total energy              =  -14687.26951988 Ry
     Harris-Foulkes estimate   =  -14685.80870233 Ry
     estimated scf accuracy    <      11.55116412 Ry

     total magnetization       =    20.25 Bohr mag/cell
     absolute magnetization    =    41.52 Bohr mag/cell

     iteration #  2     ecut=    45.00 Ry     beta= 0.10
     Davidson diagonalization with overlap
     ethr =  3.90E-03,  avg # of iterations =  1.0

[...]

     total energy              =  -14694.00951923 Ry
     Harris-Foulkes estimate   =  -14694.00951873 Ry
     estimated scf accuracy    <       0.00000140 Ry

[...]

     iteration # 32     ecut=    45.00 Ry     beta= 0.10
     Davidson diagonalization with overlap
     ethr =  4.72E-10,  avg # of iterations =  1.5

     Magnetic moment per site:
     atom:    1    charge:   13.5494    magn:    4.2246    constr:    0.0000
     atom:    2    charge:   13.5539    magn:    4.1939    constr:    0.0000
     atom:    3    charge:   13.5545    magn:    4.1918    constr:    0.0000
     atom:    4    charge:   13.5546    magn:    4.1917    constr:    0.0000
     atom:    5    charge:   13.5537    magn:    4.1939    constr:    0.0000
     atom:    6    charge:   13.5495    magn:    4.2246    constr:    0.0000
     atom:    7    charge:   13.5481    magn:   -4.2361    constr:    0.0000
     atom:    8    charge:   13.5482    magn:   -4.2360    constr:    0.0000
     atom:    9    charge:    9.1220    magn:    0.0296    constr:    0.0000
     atom:   10    charge:    9.1216    magn:    0.0282    constr:    0.0000
     atom:   11    charge:    9.1210    magn:    0.0289    constr:    0.0000
     atom:   12    charge:    9.1202    magn:    0.0253    constr:    0.0000
     atom:   13    charge:    9.1204    magn:    0.0249    constr:    0.0000
     atom:   14    charge:    9.1205    magn:    0.0249    constr:    0.0000
     atom:   15    charge:    9.1203    magn:    0.0252    constr:    0.0000
     atom:   16    charge:    9.1209    magn:    0.0289    constr:    0.0000
     atom:   17    charge:    9.1214    magn:    0.0283    constr:    0.0000
     atom:   18    charge:    9.1221    magn:    0.0297    constr:    0.0000
     atom:   19    charge:    9.1230    magn:    0.0359    constr:    0.0000
     atom:   20    charge:    9.1235    magn:   -0.0462    constr:    0.0000
     atom:   21    charge:    9.1228    magn:   -0.0380    constr:    0.0000
     atom:   22    charge:    9.1230    magn:   -0.0380    constr:    0.0000
     atom:   23    charge:    9.1238    magn:   -0.0462    constr:    0.0000
     atom:   24    charge:    9.1229    magn:    0.0359    constr:    0.0000

     End of self-consistent calculation
 --- enter write_ns ---
 LDA+U parameters:
U(  1) =   3.1200   J(  1) =   0.7000   B(  1) =   0.0803
U(  2) =   3.1200   J(  2) =   0.7000   B(  2) =   0.0803
atom    1   Tr[ns(na)] (up, down, total) =   4.97060  0.74548  5.71608
   spin  1
    eigenvalues:
  0.984  0.994  0.994  0.997  1.002
    eigenvectors:
  0.000  0.000  0.000  1.000  0.000
  0.000  0.296  0.704  0.000  0.000
  0.000  0.704  0.296  0.000  0.000
  0.000  0.000  0.000  0.000  1.000
  1.000  0.000  0.000  0.000  0.000
    occupations:
  0.997 -0.000 -0.000  0.000  0.000
 -0.000  0.994 -0.000  0.000  0.000
 -0.000 -0.000  0.994  0.000  0.000
  0.000  0.000  0.000  1.002 -0.000
  0.000  0.000  0.000 -0.000  0.984
   spin  2
    eigenvalues:
  0.065  0.135  0.146  0.146  0.253
    eigenvectors:
  0.000  1.000  0.000  0.000  0.000
  0.000  0.000  0.383  0.617  0.000
  0.000  0.000  0.617  0.383  0.000
  1.000  0.000  0.000  0.000  0.000
  0.000  0.000  0.000  0.000  1.000
    occupations:
  0.135 -0.000 -0.000  0.000  0.000
 -0.000  0.146 -0.000  0.000  0.000
 -0.000 -0.000  0.146  0.000  0.000
  0.000  0.000  0.000  0.065 -0.000
  0.000  0.000  0.000 -0.000  0.253
atomic mag. moment =     4.225116
atom    2   Tr[ns(na)] (up, down, total) =   4.96882  0.76952  5.73834
   spin  1
    eigenvalues:
  0.984  0.993  0.993  0.996  1.002
    eigenvectors:
  0.000  0.000  0.000  1.000  0.000
  0.000  0.209  0.791  0.000  0.000
  0.000  0.791  0.209  0.000  0.000
  0.000  0.000  0.000  0.000  1.000
  1.000  0.000  0.000  0.000  0.000
    occupations:
  0.996 -0.000 -0.000  0.000  0.000
 -0.000  0.993 -0.000  0.000  0.000
 -0.000 -0.000  0.993  0.000  0.000
  0.000  0.000  0.000  1.002 -0.000
  0.000  0.000  0.000 -0.000  0.984
   spin  2
    eigenvalues:
  0.065  0.143  0.143  0.150  0.268
    eigenvectors:
  0.000  0.000  0.000  1.000  0.000
  0.000  0.295  0.705  0.000  0.000
  0.000  0.705  0.295  0.000  0.000
  1.000  0.000  0.000  0.000  0.000
  0.000  0.000  0.000  0.000  1.000
    occupations:
  0.150 -0.000 -0.000  0.000  0.000
 -0.000  0.143 -0.000  0.000  0.000
 -0.000 -0.000  0.143  0.000  0.000
  0.000  0.000  0.000  0.065 -0.000
  0.000  0.000  0.000 -0.000  0.268
atomic mag. moment =     4.199303
atom    3   Tr[ns(na)] (up, down, total) =   4.96832  0.77116  5.73948
   spin  1
    eigenvalues:
  0.984  0.993  0.993  0.997  1.002
    eigenvectors:
  0.000  0.000  0.000  1.000  0.000
  0.000  0.294  0.706  0.000  0.000
  0.000  0.706  0.294  0.000  0.000
  0.000  0.000  0.000  0.000  1.000
  1.000  0.000  0.000  0.000  0.000
    occupations:
  0.997 -0.000 -0.000  0.000  0.000
 -0.000  0.993 -0.000  0.000  0.000
 -0.000 -0.000  0.993  0.000  0.000
  0.000  0.000  0.000  1.002 -0.000
  0.000  0.000  0.000 -0.000  0.984
   spin  2
    eigenvalues:
  0.065  0.143  0.143  0.152  0.267
    eigenvectors:
  0.000  0.000  0.000  1.000  0.000
  0.000  0.290  0.710  0.000  0.000
  0.000  0.710  0.290  0.000  0.000
  1.000  0.000  0.000  0.000  0.000
  0.000  0.000  0.000  0.000  1.000
    occupations:
  0.152 -0.000 -0.000  0.000  0.000
 -0.000  0.143 -0.000  0.000  0.000
 -0.000 -0.000  0.143  0.000  0.000
  0.000  0.000  0.000  0.065 -0.000
  0.000  0.000  0.000 -0.000  0.267
atomic mag. moment =     4.197159
atom    4   Tr[ns(na)] (up, down, total) =   4.96826  0.77129  5.73956
   spin  1
    eigenvalues:
  0.984  0.993  0.993  0.997  1.002
    eigenvectors:
  0.000  0.000  0.000  1.000  0.000
  0.000  0.304  0.696  0.000  0.000
  0.000  0.696  0.304  0.000  0.000
  0.000  0.000  0.000  0.000  1.000
  1.000  0.000  0.000  0.000  0.000
    occupations:
  0.997 -0.000 -0.000  0.000  0.000
 -0.000  0.993 -0.000  0.000  0.000
 -0.000 -0.000  0.993  0.000  0.000
  0.000  0.000  0.000  1.002 -0.000
  0.000  0.000  0.000 -0.000  0.984
   spin  2
    eigenvalues:
  0.065  0.143  0.143  0.152  0.268
    eigenvectors:
  0.000  0.000  0.000  1.000  0.000
  0.000  0.295  0.705  0.000  0.000
  0.000  0.705  0.295  0.000  0.000
  1.000  0.000  0.000  0.000  0.000
  0.000  0.000  0.000  0.000  1.000
    occupations:
  0.152 -0.000 -0.000  0.000  0.000
 -0.000  0.143 -0.000  0.000  0.000
 -0.000 -0.000  0.143  0.000  0.000
  0.000  0.000  0.000  0.065 -0.000
  0.000  0.000  0.000 -0.000  0.268
atomic mag. moment =     4.196969
atom    5   Tr[ns(na)] (up, down, total) =   4.96884  0.76942  5.73825
   spin  1
    eigenvalues:
  0.984  0.993  0.993  0.996  1.002
    eigenvectors:
  0.000  0.000  0.000  1.000  0.000
  0.000  0.278  0.722  0.000  0.000
  0.000  0.722  0.278  0.000  0.000
  0.000  0.000  0.000  0.000  1.000
  1.000  0.000  0.000  0.000  0.000
    occupations:
  0.996 -0.000 -0.000  0.000  0.000
 -0.000  0.993 -0.000  0.000  0.000
 -0.000 -0.000  0.993  0.000  0.000
  0.000  0.000  0.000  1.002 -0.000
  0.000  0.000  0.000 -0.000  0.984
   spin  2
    eigenvalues:
  0.065  0.144  0.144  0.150  0.267
    eigenvectors:
  0.000  0.000  0.000  1.000  0.000
  0.000  0.236  0.764  0.000  0.000
  0.000  0.764  0.236  0.000  0.000
  1.000  0.000  0.000  0.000  0.000
  0.000  0.000  0.000  0.000  1.000
    occupations:
  0.150 -0.000 -0.000  0.000  0.000
 -0.000  0.144 -0.000  0.000  0.000
 -0.000 -0.000  0.144  0.000  0.000
  0.000  0.000  0.000  0.065 -0.000
  0.000  0.000  0.000 -0.000  0.267
atomic mag. moment =     4.199417
atom    6   Tr[ns(na)] (up, down, total) =   4.97059  0.74548  5.71607
   spin  1
    eigenvalues:
  0.984  0.994  0.994  0.997  1.002
    eigenvectors:
  0.000  0.000  0.000  1.000  0.000
  0.000  0.347  0.653  0.000  0.000
  0.000  0.653  0.347  0.000  0.000
  0.000  0.000  0.000  0.000  1.000
  1.000  0.000  0.000  0.000  0.000
    occupations:
  0.997 -0.000 -0.000  0.000  0.000
 -0.000  0.994 -0.000  0.000  0.000
 -0.000 -0.000  0.994  0.000  0.000
  0.000  0.000  0.000  1.002 -0.000
  0.000  0.000  0.000 -0.000  0.984
   spin  2
    eigenvalues:
  0.065  0.135  0.146  0.146  0.253
    eigenvectors:
  0.000  1.000  0.000  0.000  0.000
  0.000  0.000  0.332  0.668  0.000
  0.000  0.000  0.668  0.332  0.000
  1.000  0.000  0.000  0.000  0.000
  0.000  0.000  0.000  0.000  1.000
    occupations:
  0.135 -0.000 -0.000  0.000  0.000
 -0.000  0.146 -0.000  0.000  0.000
 -0.000 -0.000  0.146  0.000  0.000
  0.000  0.000  0.000  0.065 -0.000
  0.000  0.000  0.000 -0.000  0.253
atomic mag. moment =     4.225112
atom    7   Tr[ns(na)] (up, down, total) =   0.73867  4.97170  5.71036
   spin  1
    eigenvalues:
  0.064  0.133  0.143  0.143  0.256
    eigenvectors:
  0.000  1.000  0.000  0.000  0.000
  0.000  0.000  0.306  0.694  0.000
  0.000  0.000  0.694  0.306  0.000
  1.000  0.000  0.000  0.000  0.000
  0.000  0.000  0.000  0.000  1.000
    occupations:
  0.133 -0.000 -0.000  0.000  0.000
 -0.000  0.143 -0.000  0.000  0.000
 -0.000 -0.000  0.143  0.000  0.000
  0.000  0.000  0.000  0.064 -0.000
  0.000  0.000  0.000 -0.000  0.256
   spin  2
    eigenvalues:
  0.985  0.994  0.994  0.997  1.002
    eigenvectors:
  0.000  0.000  0.000  1.000  0.000
  0.000  0.383  0.617  0.000  0.000
  0.000  0.617  0.383  0.000  0.000
  0.000  0.000  0.000  0.000  1.000
  1.000  0.000  0.000  0.000  0.000
    occupations:
  0.997 -0.000 -0.000  0.000  0.000
 -0.000  0.994 -0.000  0.000  0.000
 -0.000 -0.000  0.994  0.000  0.000
  0.000  0.000  0.000  1.002 -0.000
  0.000  0.000  0.000 -0.000  0.985
atomic mag. moment =    -4.233029
atom    8   Tr[ns(na)] (up, down, total) =   0.73862  4.97170  5.71032
   spin  1
    eigenvalues:
  0.064  0.133  0.143  0.143  0.256
    eigenvectors:
  0.000  1.000  0.000  0.000  0.000
  0.000  0.000  0.251  0.749  0.000
  0.000  0.000  0.749  0.251  0.000
  1.000  0.000  0.000  0.000  0.000
  0.000  0.000  0.000  0.000  1.000
    occupations:
  0.133 -0.000 -0.000  0.000  0.000
 -0.000  0.143 -0.000  0.000  0.000
 -0.000 -0.000  0.143  0.000  0.000
  0.000  0.000  0.000  0.064 -0.000
  0.000  0.000  0.000 -0.000  0.256
   spin  2
    eigenvalues:
  0.985  0.994  0.994  0.997  1.002
    eigenvectors:
  0.000  0.000  0.000  1.000  0.000
  0.000  0.350  0.650  0.000  0.000
  0.000  0.650  0.350  0.000  0.000
  0.000  0.000  0.000  0.000  1.000
  1.000  0.000  0.000  0.000  0.000
    occupations:
  0.997 -0.000 -0.000  0.000  0.000
 -0.000  0.994 -0.000  0.000  0.000
 -0.000 -0.000  0.994  0.000  0.000
  0.000  0.000  0.000  1.002 -0.000
  0.000  0.000  0.000 -0.000  0.985
atomic mag. moment =    -4.233085
N of occupied +U levels =   45.808460
 --- exit write_ns ---

 ------ SPIN UP ------------

          k = 0.0000 0.0000 0.0000 ( 13925 PWs)   bands (ev):

   -66.7431 -66.7427 -66.6266 -66.6261 -66.6146 -66.6138 -62.1801 -62.1795
   -35.5088 -35.5084 -35.4626 -35.4626 -35.4622 -35.4622 -35.3995 -35.3994
   -35.3850 -35.3848 -35.3448 -35.3448 -35.3440 -35.3440 -35.3342 -35.3342
   -35.3330 -35.3330 -31.0067 -31.0063 -30.9982 -30.9982 -30.9976 -30.9976
     5.7424   5.8667   5.9321   6.3327   6.3553   6.9826   7.0392   7.6110
     8.2157   8.3511   8.3595   8.3962   8.4346   8.4926   8.5563   8.6414
     8.7777   8.7876   8.8151   8.8221   9.0161   9.0500   9.1361   9.2024
     9.2083   9.3660   9.4387   9.4612   9.5419   9.6037   9.6879   9.8439
     9.8763   9.9000   9.9069   9.9834  10.1035  10.1130  10.1164  10.1164
    10.1692  10.1692  10.1836  10.1836  10.2499  10.2500  10.3311  10.3311
    10.3393  10.3393  10.4285  10.4324  10.5040  10.5815  10.5815  10.5862
    10.5862  10.6003  10.6003  10.6031  10.6031  10.6493  10.6493  10.6534
    10.6798  10.7057  10.7057  10.7751  10.7751  10.7830  10.7830  10.8312
    10.9949  10.9967  11.0373  11.0373  11.0394  11.0394  11.0654  11.1863
    11.2416  11.2535  11.2896  11.3998  11.4910  11.4910  11.5396  11.5452
    11.5503  11.5503  11.5875  11.7326  11.7691  11.8373  11.8990  11.9041
    11.9041  12.0237  12.0446  12.0571  12.0716  12.0716  12.1026  12.1590
    12.2298  12.2358  12.3770  12.3770  12.4903  12.6150  12.6150  12.6568
    12.8036  12.8036  12.8072  12.8132  12.9414  13.0503  13.1103  13.1242
    13.2334  13.8892  14.1195  15.0504  15.5550  16.5620  16.7789  16.7789
    16.9416  16.9959  17.0720  17.0720  17.0917  17.1450  17.4890  17.5673
    18.1429  19.3788  19.6435  20.0346  20.0346  20.3708  20.3708  20.4597
    20.4597  21.3796

[...]

          k =-0.5000-0.5000 0.0000 ( 13964 PWs)   bands (ev):

[...]

 ------ SPIN DOWN ----------

[...]

          k = 0.3750-0.5000-0.0484 ( 13940 PWs)   bands (ev):

[...]

          k =-0.5000-0.5000-0.0484 ( 13992 PWs)   bands (ev):

   -66.7689 -66.7682 -62.1608 -62.1603 -62.0711 -62.0708 -62.0615 -62.0610
   -35.5397 -35.5396 -35.4973 -35.4973 -35.4963 -35.4963 -30.9952 -30.9952
   -30.9948 -30.9948 -30.9844 -30.9838 -30.9038 -30.9038 -30.9033 -30.9033
   -30.9021 -30.9021 -30.8955 -30.8955 -30.8948 -30.8948 -30.8899 -30.8899
     8.0683   8.0686   8.4556   8.4557   8.5929   8.5930   8.6728   8.6731
     8.9739   8.9740   9.0623   9.0625   9.2371   9.2371   9.2883   9.2883
     9.3426   9.3426   9.3614   9.3614   9.3751   9.3753   9.3776   9.3776
     9.5613   9.5613   9.5655   9.5655   9.8614   9.8614   9.8703   9.8703
     9.8845   9.8845   9.9174   9.9180  10.0286  10.0286  10.2478  10.2478
    10.3271  10.3271  10.5605  10.5606  10.6264  10.6264  10.6958  10.6959
    10.7596  10.7596  10.8483  10.8483  11.0973  11.0976  11.3359  11.3359
    11.3478  11.3478  11.3809  11.3809  11.4394  11.4404  11.6524  11.6524
    11.9246  11.9247  11.9538  11.9542  11.9979  11.9980  11.9991  11.9992
    12.0222  12.0222  12.0506  12.0511  12.0905  12.0906  12.0915  12.0915
    12.1758  12.1760  12.2242  12.2242  12.2388  12.2388  12.2731  12.2731
    12.2988  12.2990  13.3703  13.3705  13.3999  13.4005  13.4164  13.4170
    13.8902  13.8902  14.0787  14.0787  14.3396  14.3396  14.4922  14.4922
    14.7258  14.7258  14.8375  14.8375  15.2055  15.2055  16.6000  16.6000
    16.6413  16.6415  16.7876  16.7879  16.9000  16.9002  16.9991  16.9992
    17.1616  17.1616  17.2926  17.2926  17.8002  17.8003  17.8037  17.8037
    17.8664  17.8665  17.9876  17.9876  18.0892  18.0894  18.1861  18.1872
    18.1924  18.1939  18.2096  18.2097  18.4879  18.4880  18.8107  18.8107
    18.8925  18.8925

     the Fermi energy is    15.2187 ev

!    total energy              =  -14694.00952169 Ry
     Harris-Foulkes estimate   =  -14694.00951944 Ry
     estimated scf accuracy    <       0.00000084 Ry

     total all-electron energy =   -626921.605244 Ry

     The total energy is the sum of the following terms:

     one-electron contribution =    -714.69313660 Ry
     hartree contribution      =     656.69696168 Ry
     xc contribution           =    -737.85790394 Ry
     ewald contribution        =   -2196.78933708 Ry
     Hubbard energy            =       0.45976998 Ry
     one-center paw contrib.   =  -11701.82587572 Ry

     total magnetization       =    17.05 Bohr mag/cell
     absolute magnetization    =    37.05 Bohr mag/cell

     convergence has been achieved in  32 iterations

     Writing output data file mnau2.save/

     General routines

     Parallel routines

     Hubbard U routines

      35h

   This run was terminated on:   3:33:54   8Apr2019

   JOB DONE.