     Program PWSCF v.6.3MaX starts on  8Apr2019 at  4:53: 8

     R & G space division:  proc/nbgrp/npool/nimage =      32
     Waiting for input...
     Reading input from standard input

     Current dimensions of program PWSCF are:
     Max number of different atomic species (ntypx) = 10
     Max number of k-points (npk) =  40000
     Max angular momentum in pseudopotentials (lmaxx) =  3
               file Mn.pbe-spn-kjpaw_psl.0.3.1.UPF: wavefunction(s)  3P 3D renormalized
               file Mn.pbe-spn-kjpaw_psl.0.3.1.UPF: wavefunction(s)  3P 3D renormalized
               file Au.pbe-dn-kjpaw_psl.0.1.UPF: wavefunction(s)  6S 6P 5D renormalized

     bravais-lattice index     =            0
     lattice parameter (alat)  =       6.4153  a.u.
     unit-cell volume          =    2724.7774 (a.u.)^3
     number of atoms/cell      =           24
     number of atomic types    =            3
     number of electrons       =       296.00
     number of Kohn-Sham states=          178
     kinetic-energy cutoff     =      45.0000  Ry
     charge density cutoff     =     400.0000  Ry
     convergence threshold     =      1.0E-06
     mixing beta               =       0.1000
     number of iterations used =            8  plain     mixing
     Exchange-correlation      = SLA PW PBX PBC ( 1  4  3  4 0 0)

     celldm(1)=   6.415315  celldm(2)=   0.000000  celldm(3)=   0.000000
     celldm(4)=   0.000000  celldm(5)=   0.000000  celldm(6)=   0.000000

     crystal axes: (cart. coord. in units of alat)
               a(1) = (   1.000000   0.000000   0.000000 )
               a(2) = (   0.000000   1.000000   0.000000 )
               a(3) = (   0.000000   0.000000  10.319937 )

     reciprocal axes: (cart. coord. in units 2 pi/alat)
               b(1) = (  1.000000  0.000000  0.000000 )
               b(2) = (  0.000000  1.000000  0.000000 )
               b(3) = (  0.000000  0.000000  0.096900 )

     PseudoPot. # 1 for Mn read from file:
     ./pseudo/Mn.pbe-spn-kjpaw_psl.0.3.1.UPF
     MD5 check sum: 7b43a3fb0e93e198b8dd8488d8cf503e
     Pseudo is Projector augmented-wave + core cor, Zval = 15.0
     Generated using "atomic" code by A. Dal Corso v.5.0.99 svn rev. 10869
     Shape of augmentation charge: PSQ
     Using radial grid of 1187 points,  6 beta functions with:
                l(1) =   0
                l(2) =   0
                l(3) =   1
                l(4) =   1
                l(5) =   2
                l(6) =   2
     Q(r) pseudized with 0 coefficients

     PseudoPot. # 2 for Mn read from file:
     ./pseudo/Mn.pbe-spn-kjpaw_psl.0.3.1.UPF
     MD5 check sum: 7b43a3fb0e93e198b8dd8488d8cf503e
     Pseudo is Projector augmented-wave + core cor, Zval = 15.0
     Generated using "atomic" code by A. Dal Corso v.5.0.99 svn rev. 10869
     Shape of augmentation charge: PSQ
     Using radial grid of 1187 points,  6 beta functions with:
                l(1) =   0
                l(2) =   0
                l(3) =   1
                l(4) =   1
                l(5) =   2
                l(6) =   2
     Q(r) pseudized with 0 coefficients

     PseudoPot. # 3 for Au read from file:
     ./pseudo/Au.pbe-dn-kjpaw_psl.0.1.UPF
     MD5 check sum: be11e2e8e535ebe2b3ccfb4f88f554cb
     Pseudo is Projector augmented-wave + core cor, Zval = 11.0
     Generated using "atomic" code by A. Dal Corso v.5.0.2 svn rev. 9415
     Shape of augmentation charge: PSQ
     Using radial grid of 1279 points,  6 beta functions with:
                l(1) =   0
                l(2) =   0
                l(3) =   1
                l(4) =   1
                l(5) =   2
                l(6) =   2
     Q(r) pseudized with 0 coefficients

     atomic species   valence    mass     pseudopotential
        Mn1           15.00    54.93800     Mn( 1.00)
        Mn2           15.00    54.93800     Mn( 1.00)
        Au            11.00   196.96600     Au( 1.00)

     Starting magnetic structure
     atomic species   magnetization
        Mn1          0.800
        Mn2         -0.800
        Au           0.000

     Full LDA+U calculation (l_max = 2) with parameters (eV):
     U(  1) =   3.1200   J(  1) =   0.7000   B(  1) =   0.0803
     U(  2) =   3.1200   J(  2) =   0.7000   B(  2) =   0.0803

     16 Sym. Ops., with inversion, found ( 8 have fractional translation)

   Cartesian axes

     site n.     atom                  positions (alat units)
         1           Mn1 tau(   1) = (   0.0000000   0.0000000   0.0000000  )
         2           Mn1 tau(   2) = (   0.5000000   0.5000000   1.2899921  )
         3           Mn1 tau(   3) = (   0.0000000   0.0000000   2.5799843  )
         4           Mn1 tau(   4) = (   0.5000000   0.5000000   3.8699764  )
         5           Mn1 tau(   5) = (   0.0000000   0.0000000   5.1599686  )
         6           Mn2 tau(   6) = (   0.5000000   0.5000000   6.4499607  )
         7           Mn2 tau(   7) = (   0.0000000   0.0000000   7.7399528  )
         8           Mn2 tau(   8) = (   0.5000000   0.5000000   9.0299450  )
         9           Au  tau(   9) = (   0.5000000   0.5000000   0.4127975  )
        10           Au  tau(  10) = (   0.0000000   0.0000000   0.8771947  )
        11           Au  tau(  11) = (   0.0000000   0.0000000   1.7027896  )
        12           Au  tau(  12) = (   0.5000000   0.5000000   2.1671868  )
        13           Au  tau(  13) = (   0.5000000   0.5000000   2.9927818  )
        14           Au  tau(  14) = (   0.0000000   0.0000000   3.4571789  )
        15           Au  tau(  15) = (   0.0000000   0.0000000   4.2827739  )
        16           Au  tau(  16) = (   0.5000000   0.5000000   4.7471711  )
        17           Au  tau(  17) = (   0.5000000   0.5000000   5.5727660  )
        18           Au  tau(  18) = (   0.0000000   0.0000000   6.0371632  )
        19           Au  tau(  19) = (   0.0000000   0.0000000   6.8627582  )
        20           Au  tau(  20) = (   0.5000000   0.5000000   7.3271553  )
        21           Au  tau(  21) = (   0.5000000   0.5000000   8.1527503  )
        22           Au  tau(  22) = (   0.0000000   0.0000000   8.6171475  )
        23           Au  tau(  23) = (   0.0000000   0.0000000   9.4427424  )
        24           Au  tau(  24) = (   0.5000000   0.5000000   9.9071396  )

     number of k points=    45 (tetrahedron method)
                       cart. coord. in units 2pi/alat
        k(    1) = (   0.0000000   0.0000000   0.0000000), wk =   0.0039062
        k(    2) = (   0.0000000   0.0000000   0.0242250), wk =   0.0078125
        k(    3) = (   0.0000000   0.0000000  -0.0484499), wk =   0.0039062
        k(    4) = (   0.0000000   0.1250000   0.0000000), wk =   0.0156250
        k(    5) = (   0.0000000   0.1250000   0.0242250), wk =   0.0312500
        k(    6) = (   0.0000000   0.1250000  -0.0484499), wk =   0.0156250
        k(    7) = (   0.0000000   0.2500000   0.0000000), wk =   0.0156250
        k(    8) = (   0.0000000   0.2500000   0.0242250), wk =   0.0312500
        k(    9) = (   0.0000000   0.2500000  -0.0484499), wk =   0.0156250
        k(   10) = (   0.0000000   0.3750000   0.0000000), wk =   0.0156250
        k(   11) = (   0.0000000   0.3750000   0.0242250), wk =   0.0312500
        k(   12) = (   0.0000000   0.3750000  -0.0484499), wk =   0.0156250
        k(   13) = (   0.0000000  -0.5000000   0.0000000), wk =   0.0078125
        k(   14) = (   0.0000000  -0.5000000   0.0242250), wk =   0.0156250
        k(   15) = (   0.0000000  -0.5000000  -0.0484499), wk =   0.0078125
        k(   16) = (   0.1250000   0.1250000   0.0000000), wk =   0.0156250
        k(   17) = (   0.1250000   0.1250000   0.0242250), wk =   0.0312500
        k(   18) = (   0.1250000   0.1250000  -0.0484499), wk =   0.0156250
        k(   19) = (   0.1250000   0.2500000   0.0000000), wk =   0.0312500
        k(   20) = (   0.1250000   0.2500000   0.0242250), wk =   0.0625000
        k(   21) = (   0.1250000   0.2500000  -0.0484499), wk =   0.0312500
        k(   22) = (   0.1250000   0.3750000   0.0000000), wk =   0.0312500
        k(   23) = (   0.1250000   0.3750000   0.0242250), wk =   0.0625000
        k(   24) = (   0.1250000   0.3750000  -0.0484499), wk =   0.0312500
        k(   25) = (   0.1250000  -0.5000000   0.0000000), wk =   0.0156250
        k(   26) = (   0.1250000  -0.5000000   0.0242250), wk =   0.0312500
        k(   27) = (   0.1250000  -0.5000000  -0.0484499), wk =   0.0156250
        k(   28) = (   0.2500000   0.2500000   0.0000000), wk =   0.0156250
        k(   29) = (   0.2500000   0.2500000   0.0242250), wk =   0.0312500
        k(   30) = (   0.2500000   0.2500000  -0.0484499), wk =   0.0156250
        k(   31) = (   0.2500000   0.3750000   0.0000000), wk =   0.0312500
        k(   32) = (   0.2500000   0.3750000   0.0242250), wk =   0.0625000
        k(   33) = (   0.2500000   0.3750000  -0.0484499), wk =   0.0312500
        k(   34) = (   0.2500000  -0.5000000   0.0000000), wk =   0.0156250
        k(   35) = (   0.2500000  -0.5000000   0.0242250), wk =   0.0312500
        k(   36) = (   0.2500000  -0.5000000  -0.0484499), wk =   0.0156250
        k(   37) = (   0.3750000   0.3750000   0.0000000), wk =   0.0156250
        k(   38) = (   0.3750000   0.3750000   0.0242250), wk =   0.0312500
        k(   39) = (   0.3750000   0.3750000  -0.0484499), wk =   0.0156250
        k(   40) = (   0.3750000  -0.5000000   0.0000000), wk =   0.0156250
        k(   41) = (   0.3750000  -0.5000000   0.0242250), wk =   0.0312500
        k(   42) = (   0.3750000  -0.5000000  -0.0484499), wk =   0.0156250
        k(   43) = (  -0.5000000  -0.5000000   0.0000000), wk =   0.0039062
        k(   44) = (  -0.5000000  -0.5000000   0.0242250), wk =   0.0078125
        k(   45) = (  -0.5000000  -0.5000000  -0.0484499), wk =   0.0039062

     Check: negative/imaginary core charge=   -0.000006    0.000000

     Initial potential from superposition of free atoms

     starting charge  295.99426, renormalised to  296.00000
     Number of +U iterations with fixed ns =  0
     Starting occupations:
 --- enter write_ns ---
 LDA+U parameters:
U(  1) =   3.1200   J(  1) =   0.7000   B(  1) =   0.0803
U(  2) =   3.1200   J(  2) =   0.7000   B(  2) =   0.0803
atom    1   Tr[ns(na)] (up, down, total) =   5.00000  0.00000  5.00000
   spin  1
    eigenvalues:
  1.000  1.000  1.000  1.000  1.000
    eigenvectors:
  1.000  0.000  0.000  0.000  0.000
  0.000  1.000  0.000  0.000  0.000
  0.000  0.000  1.000  0.000  0.000
  0.000  0.000  0.000  1.000  0.000
  0.000  0.000  0.000  0.000  1.000
    occupations:
  1.000  0.000  0.000  0.000  0.000
  0.000  1.000  0.000  0.000  0.000
  0.000  0.000  1.000  0.000  0.000
  0.000  0.000  0.000  1.000  0.000
  0.000  0.000  0.000  0.000  1.000
   spin  2
    eigenvalues:
  0.000  0.000  0.000  0.000  0.000
    eigenvectors:
  1.000  0.000  0.000  0.000  0.000
  0.000  1.000  0.000  0.000  0.000
  0.000  0.000  1.000  0.000  0.000
  0.000  0.000  0.000  1.000  0.000
  0.000  0.000  0.000  0.000  1.000
    occupations:
  0.000  0.000  0.000  0.000  0.000
  0.000  0.000  0.000  0.000  0.000
  0.000  0.000  0.000  0.000  0.000
  0.000  0.000  0.000  0.000  0.000
  0.000  0.000  0.000  0.000  0.000
[...]
  1.000  0.000  0.000  0.000  0.000
  0.000  0.000  0.000  0.000  1.000
    occupations:
  0.073 -0.000 -0.000  0.000  0.000
 -0.000  0.081 -0.000  0.000  0.000
 -0.000 -0.000  0.081  0.000  0.000
  0.000  0.000  0.000  0.053 -0.000
  0.000  0.000  0.000 -0.000  0.120
   spin  2
    eigenvalues:
  1.003  1.003  1.003  1.004  1.004
    eigenvectors:
  0.000  0.000  0.000  1.000  0.000
  0.000  0.325  0.675  0.000  0.000
  0.000  0.675  0.325  0.000  0.000
  0.000  0.000  0.000  0.000  1.000
  1.000  0.000  0.000  0.000  0.000
    occupations:
  1.004 -0.000 -0.000  0.000  0.000
 -0.000  1.003 -0.000  0.000  0.000
 -0.000 -0.000  1.003  0.000  0.000
  0.000  0.000  0.000  1.004 -0.000
  0.000  0.000  0.000 -0.000  1.003
atomic mag. moment =    -4.609232
N of occupied +U levels =   43.387311
 --- exit write_ns ---

     total energy              =  -14687.27070783 Ry
     Harris-Foulkes estimate   =  -14685.80915989 Ry
     estimated scf accuracy    <      11.53781009 Ry

     total magnetization       =    10.07 Bohr mag/cell
     absolute magnetization    =    41.52 Bohr mag/cell

     iteration #  2     ecut=    45.00 Ry     beta= 0.10
     Davidson diagonalization with overlap
     ethr =  3.90E-03,  avg # of iterations =  1.0

[...]

     iteration # 12     ecut=    45.00 Ry     beta= 0.10
     Davidson diagonalization with overlap
     c_bands:  3 eigenvalues not converged
     ethr =  2.69E-06,  avg # of iterations =  3.1

[...]

     total energy              =  -14694.00931541 Ry
     Harris-Foulkes estimate   =  -14694.00931396 Ry
     estimated scf accuracy    <       0.00000114 Ry

[...]

     iteration # 23     ecut=    45.00 Ry     beta= 0.10
     Davidson diagonalization with overlap
     ethr =  3.86E-10,  avg # of iterations =  2.4

     Magnetic moment per site:
     atom:    1    charge:   13.5490    magn:    4.2275    constr:    0.0000
     atom:    2    charge:   13.5539    magn:    4.1942    constr:    0.0000
     atom:    3    charge:   13.5539    magn:    4.1984    constr:    0.0000
     atom:    4    charge:   13.5539    magn:    4.1942    constr:    0.0000
     atom:    5    charge:   13.5490    magn:    4.2275    constr:    0.0000
     atom:    6    charge:   13.5491    magn:   -4.2316    constr:    0.0000
     atom:    7    charge:   13.5525    magn:   -4.2029    constr:    0.0000
     atom:    8    charge:   13.5491    magn:   -4.2316    constr:    0.0000
     atom:    9    charge:    9.1221    magn:    0.0306    constr:    0.0000
     atom:   10    charge:    9.1216    magn:    0.0295    constr:    0.0000
     atom:   11    charge:    9.1212    magn:    0.0304    constr:    0.0000
     atom:   12    charge:    9.1195    magn:    0.0245    constr:    0.0000
     atom:   13    charge:    9.1195    magn:    0.0245    constr:    0.0000
     atom:   14    charge:    9.1212    magn:    0.0304    constr:    0.0000
     atom:   15    charge:    9.1216    magn:    0.0295    constr:    0.0000
     atom:   16    charge:    9.1221    magn:    0.0306    constr:    0.0000
     atom:   17    charge:    9.1238    magn:    0.0381    constr:    0.0000
     atom:   18    charge:    9.1232    magn:   -0.0392    constr:    0.0000
     atom:   19    charge:    9.1218    magn:   -0.0316    constr:    0.0000
     atom:   20    charge:    9.1217    magn:   -0.0340    constr:    0.0000
     atom:   21    charge:    9.1217    magn:   -0.0340    constr:    0.0000
     atom:   22    charge:    9.1218    magn:   -0.0316    constr:    0.0000
     atom:   23    charge:    9.1232    magn:   -0.0392    constr:    0.0000
     atom:   24    charge:    9.1238    magn:    0.0381    constr:    0.0000

     End of self-consistent calculation
 --- enter write_ns ---
 LDA+U parameters:
U(  1) =   3.1200   J(  1) =   0.7000   B(  1) =   0.0803
U(  2) =   3.1200   J(  2) =   0.7000   B(  2) =   0.0803
atom    1   Tr[ns(na)] (up, down, total) =   4.97060  0.74320  5.71380
   spin  1
    eigenvalues:
  0.984  0.994  0.994  0.997  1.002
    eigenvectors:
  0.000  0.000  0.000  1.000  0.000
  0.000  0.284  0.716  0.000  0.000
  0.000  0.716  0.284  0.000  0.000
  0.000  0.000  0.000  0.000  1.000
  1.000  0.000  0.000  0.000  0.000
    occupations:
  0.997 -0.000 -0.000  0.000  0.000
 -0.000  0.994 -0.000  0.000  0.000
 -0.000 -0.000  0.994  0.000  0.000
  0.000  0.000  0.000  1.002 -0.000
  0.000  0.000  0.000 -0.000  0.984
   spin  2
    eigenvalues:
  0.065  0.136  0.143  0.143  0.255
    eigenvectors:
  0.000  1.000  0.000  0.000  0.000
  0.000  0.000  0.329  0.671  0.000
  0.000  0.000  0.671  0.329  0.000
  1.000  0.000  0.000  0.000  0.000
  0.000  0.000  0.000  0.000  1.000
    occupations:
  0.136 -0.000 -0.000  0.000  0.000
 -0.000  0.143 -0.000  0.000  0.000
 -0.000 -0.000  0.143  0.000  0.000
  0.000  0.000  0.000  0.065 -0.000
  0.000  0.000  0.000 -0.000  0.255
atomic mag. moment =     4.227399
atom    2   Tr[ns(na)] (up, down, total) =   4.96862  0.76938  5.73800
   spin  1
    eigenvalues:
  0.984  0.993  0.993  0.996  1.002
    eigenvectors:
  0.000  0.000  0.000  1.000  0.000
  0.000  0.278  0.722  0.000  0.000
  0.000  0.722  0.278  0.000  0.000
  0.000  0.000  0.000  0.000  1.000
  1.000  0.000  0.000  0.000  0.000
    occupations:
  0.996 -0.000 -0.000  0.000  0.000
 -0.000  0.993 -0.000  0.000  0.000
 -0.000 -0.000  0.993  0.000  0.000
  0.000  0.000  0.000  1.002 -0.000
  0.000  0.000  0.000 -0.000  0.984
   spin  2
    eigenvalues:
  0.065  0.144  0.144  0.147  0.269
    eigenvectors:
  0.000  0.000  0.000  1.000  0.000
  0.000  0.313  0.687  0.000  0.000
  0.000  0.687  0.313  0.000  0.000
  1.000  0.000  0.000  0.000  0.000
  0.000  0.000  0.000  0.000  1.000
    occupations:
  0.147 -0.000 -0.000  0.000  0.000
 -0.000  0.144 -0.000  0.000  0.000
 -0.000 -0.000  0.144  0.000  0.000
  0.000  0.000  0.000  0.065 -0.000
  0.000  0.000  0.000 -0.000  0.269
atomic mag. moment =     4.199237
atom    3   Tr[ns(na)] (up, down, total) =   4.96867  0.76647  5.73514
   spin  1
    eigenvalues:
  0.984  0.993  0.993  0.997  1.002
    eigenvectors:
  0.000  0.000  0.000  1.000  0.000
  0.000  0.335  0.665  0.000  0.000
  0.000  0.665  0.335  0.000  0.000
  0.000  0.000  0.000  0.000  1.000
  1.000  0.000  0.000  0.000  0.000
    occupations:
  0.997 -0.000 -0.000  0.000  0.000
 -0.000  0.993 -0.000  0.000  0.000
 -0.000 -0.000  0.993  0.000  0.000
  0.000  0.000  0.000  1.002 -0.000
  0.000  0.000  0.000 -0.000  0.984
   spin  2
    eigenvalues:
  0.065  0.142  0.142  0.148  0.269
    eigenvectors:
  0.000  0.000  0.000  1.000  0.000
  0.000  0.366  0.634  0.000  0.000
  0.000  0.634  0.366  0.000  0.000
  1.000  0.000  0.000  0.000  0.000
  0.000  0.000  0.000  0.000  1.000
    occupations:
  0.148 -0.000 -0.000  0.000  0.000
 -0.000  0.142 -0.000  0.000  0.000
 -0.000 -0.000  0.142  0.000  0.000
  0.000  0.000  0.000  0.065 -0.000
  0.000  0.000  0.000 -0.000  0.269
atomic mag. moment =     4.202195
atom    4   Tr[ns(na)] (up, down, total) =   4.96862  0.76938  5.73800
   spin  1
    eigenvalues:
  0.984  0.993  0.993  0.996  1.002
    eigenvectors:
  0.000  0.000  0.000  1.000  0.000
  0.000  0.250  0.750  0.000  0.000
  0.000  0.750  0.250  0.000  0.000
  0.000  0.000  0.000  0.000  1.000
  1.000  0.000  0.000  0.000  0.000
    occupations:
  0.996 -0.000 -0.000  0.000  0.000
 -0.000  0.993 -0.000  0.000  0.000
 -0.000 -0.000  0.993  0.000  0.000
  0.000  0.000  0.000  1.002 -0.000
  0.000  0.000  0.000 -0.000  0.984
   spin  2
    eigenvalues:
  0.065  0.144  0.144  0.147  0.269
    eigenvectors:
  0.000  0.000  0.000  1.000  0.000
  0.000  0.284  0.716  0.000  0.000
  0.000  0.716  0.284  0.000  0.000
  1.000  0.000  0.000  0.000  0.000
  0.000  0.000  0.000  0.000  1.000
    occupations:
  0.147 -0.000 -0.000  0.000  0.000
 -0.000  0.144 -0.000  0.000  0.000
 -0.000 -0.000  0.144  0.000  0.000
  0.000  0.000  0.000  0.065 -0.000
  0.000  0.000  0.000 -0.000  0.269
atomic mag. moment =     4.199237
atom    5   Tr[ns(na)] (up, down, total) =   4.97060  0.74320  5.71380
   spin  1
    eigenvalues:
  0.984  0.994  0.994  0.997  1.002
    eigenvectors:
  0.000  0.000  0.000  1.000  0.000
  0.000  0.394  0.606  0.000  0.000
  0.000  0.606  0.394  0.000  0.000
  0.000  0.000  0.000  0.000  1.000
  1.000  0.000  0.000  0.000  0.000
    occupations:
  0.997 -0.000 -0.000  0.000  0.000
 -0.000  0.994 -0.000  0.000  0.000
 -0.000 -0.000  0.994  0.000  0.000
  0.000  0.000  0.000  1.002 -0.000
  0.000  0.000  0.000 -0.000  0.984
   spin  2
    eigenvalues:
  0.065  0.136  0.143  0.143  0.255
    eigenvectors:
  0.000  1.000  0.000  0.000  0.000
  0.000  0.000  0.376  0.624  0.000
  0.000  0.000  0.624  0.376  0.000
  1.000  0.000  0.000  0.000  0.000
  0.000  0.000  0.000  0.000  1.000
    occupations:
  0.136 -0.000 -0.000  0.000  0.000
 -0.000  0.143 -0.000  0.000  0.000
 -0.000 -0.000  0.143  0.000  0.000
  0.000  0.000  0.000  0.065 -0.000
  0.000  0.000  0.000 -0.000  0.255
atomic mag. moment =     4.227399
atom    6   Tr[ns(na)] (up, down, total) =   0.74108  4.97107  5.71215
   spin  1
    eigenvalues:
  0.065  0.136  0.142  0.142  0.255
    eigenvectors:
  0.000  1.000  0.000  0.000  0.000
  0.000  0.000  0.317  0.683  0.000
  0.000  0.000  0.683  0.317  0.000
  1.000  0.000  0.000  0.000  0.000
  0.000  0.000  0.000  0.000  1.000
    occupations:
  0.136 -0.000 -0.000  0.000  0.000
 -0.000  0.142 -0.000  0.000  0.000
 -0.000 -0.000  0.142  0.000  0.000
  0.000  0.000  0.000  0.065 -0.000
  0.000  0.000  0.000 -0.000  0.255
   spin  2
    eigenvalues:
  0.985  0.993  0.993  0.997  1.002
    eigenvectors:
  0.000  0.000  0.000  1.000  0.000
  0.000  0.278  0.722  0.000  0.000
  0.000  0.722  0.278  0.000  0.000
  0.000  0.000  0.000  0.000  1.000
  1.000  0.000  0.000  0.000  0.000
    occupations:
  0.997 -0.000 -0.000  0.000  0.000
 -0.000  0.993 -0.000  0.000  0.000
 -0.000 -0.000  0.993  0.000  0.000
  0.000  0.000  0.000  1.002 -0.000
  0.000  0.000  0.000 -0.000  0.985
atomic mag. moment =    -4.229986
atom    7   Tr[ns(na)] (up, down, total) =   0.76301  4.96994  5.73294
   spin  1
    eigenvalues:
  0.065  0.142  0.142  0.146  0.268
    eigenvectors:
  0.000  0.000  0.000  1.000  0.000
  0.000  0.309  0.691  0.000  0.000
  0.000  0.691  0.309  0.000  0.000
  1.000  0.000  0.000  0.000  0.000
  0.000  0.000  0.000  0.000  1.000
    occupations:
  0.146 -0.000 -0.000  0.000  0.000
 -0.000  0.142 -0.000  0.000  0.000
 -0.000 -0.000  0.142  0.000  0.000
  0.000  0.000  0.000  0.065 -0.000
  0.000  0.000  0.000 -0.000  0.268
   spin  2
    eigenvalues:
  0.985  0.993  0.993  0.997  1.002
    eigenvectors:
  0.000  0.000  0.000  1.000  0.000
  0.000  0.254  0.746  0.000  0.000
  0.000  0.746  0.254  0.000  0.000
  0.000  0.000  0.000  0.000  1.000
  1.000  0.000  0.000  0.000  0.000
    occupations:
  0.997 -0.000 -0.000  0.000  0.000
 -0.000  0.993 -0.000  0.000  0.000
 -0.000 -0.000  0.993  0.000  0.000
  0.000  0.000  0.000  1.002 -0.000
  0.000  0.000  0.000 -0.000  0.985
atomic mag. moment =    -4.206928
atom    8   Tr[ns(na)] (up, down, total) =   0.74108  4.97107  5.71215
   spin  1
    eigenvalues:
  0.065  0.136  0.142  0.142  0.255
    eigenvectors:
  0.000  1.000  0.000  0.000  0.000
  0.000  0.000  0.309  0.691  0.000
  0.000  0.000  0.691  0.309  0.000
  1.000  0.000  0.000  0.000  0.000
  0.000  0.000  0.000  0.000  1.000
    occupations:
  0.136 -0.000 -0.000  0.000  0.000
 -0.000  0.142 -0.000  0.000  0.000
 -0.000 -0.000  0.142  0.000  0.000
  0.000  0.000  0.000  0.065 -0.000
  0.000  0.000  0.000 -0.000  0.255
   spin  2
    eigenvalues:
  0.985  0.993  0.993  0.997  1.002
    eigenvectors:
  0.000  0.000  0.000  1.000  0.000
  0.000  0.274  0.726  0.000  0.000
  0.000  0.726  0.274  0.000  0.000
  0.000  0.000  0.000  0.000  1.000
  1.000  0.000  0.000  0.000  0.000
    occupations:
  0.997 -0.000 -0.000  0.000  0.000
 -0.000  0.993 -0.000  0.000  0.000
 -0.000 -0.000  0.993  0.000  0.000
  0.000  0.000  0.000  1.002 -0.000
  0.000  0.000  0.000 -0.000  0.985
atomic mag. moment =    -4.229986
N of occupied +U levels =   45.795991
 --- exit write_ns ---

 ------ SPIN UP ------------

          k = 0.0000 0.0000 0.0000 ( 13925 PWs)   bands (ev):

   -66.7571 -66.7571 -66.6308 -66.6308 -66.6178 -62.1665 -62.1665 -62.0835
   -35.5243 -35.5243 -35.4756 -35.4756 -35.4756 -35.4756 -35.4059 -35.4059
   -35.3920 -35.3476 -35.3476 -35.3476 -35.3476 -35.3348 -35.3348 -30.9911
   -30.9911 -30.9858 -30.9858 -30.9858 -30.9858 -30.9163 -30.9004 -30.9004
     5.7487   5.8728   5.9726   6.3441   6.3835   7.0193   7.0371   7.6101
     8.2589   8.3526   8.3648   8.4116   8.4586   8.5485   8.6269   8.7465
     8.8034   8.8332   8.8923   8.9862   9.1085   9.1670   9.2111   9.2273
     9.2355   9.3631   9.4483   9.5735   9.5836   9.6461   9.7221   9.8770
     9.9171   9.9176  10.0281  10.1209  10.1209  10.1344  10.1576  10.1576
    10.1891  10.1946  10.1946  10.2500  10.3130  10.3389  10.3389  10.3395
    10.3395  10.3835  10.4893  10.5707  10.5721  10.5721  10.5800  10.5800
    10.5954  10.6047  10.6047  10.6053  10.6053  10.6559  10.6610  10.6610
    10.7495  10.7495  10.7708  10.7708  10.8242  10.8634  10.9935  11.0036
    11.0036  11.0408  11.0408  11.1045  11.1265  11.1870  11.2414  11.2861
    11.4022  11.4729  11.4729  11.4752  11.4929  11.4929  11.5634  11.6898
    11.7390  11.7755  11.9010  11.9010  11.9200  11.9200  11.9259  11.9634
    12.0400  12.0499  12.1160  12.1404  12.2243  12.2332  12.2418  12.2418
    12.5113  12.5347  12.5347  12.6958  12.7774  12.7774  12.8167  12.8662
    13.0102  13.0981  13.1120  13.1144  13.8564  13.9230  14.7922  15.3867
    16.4107  16.7786  16.7786  16.9178  16.9178  16.9583  16.9746  17.0682
    17.1079  17.1310  17.1932  17.1975  17.1975  17.4855  17.5490  17.6187
    18.2985  19.4947  19.7539  20.0539  20.0539  20.4016  20.4016  20.5254
    20.5254  21.4371

[...]

          k =-0.5000-0.5000 0.0000 ( 13964 PWs)   bands (ev):

[...]

 ------ SPIN DOWN ----------

[...]

          k = 0.3750-0.5000-0.0484 ( 13940 PWs)   bands (ev):

[...]

          k =-0.5000-0.5000-0.0484 ( 13992 PWs)   bands (ev):

   -66.7513 -66.7513 -66.6446 -62.1732 -62.1732 -62.0758 -62.0758 -62.0596
   -35.5199 -35.5199 -35.4810 -35.4810 -35.4810 -35.4810 -35.4210 -35.3723
   -35.3723 -31.0074 -31.0074 -31.0074 -31.0074 -30.9964 -30.9964 -30.9088
   -30.9088 -30.9088 -30.9088 -30.9056 -30.9056 -30.8931 -30.8931 -30.8882
     8.0338   8.0368   8.2503   8.3289   8.5650   8.5785   8.6105   8.6655
     8.9223   8.9645   8.9761   9.0444   9.2474   9.2474   9.2715   9.2715
     9.3226   9.3499   9.3525   9.3582   9.3608   9.3608   9.3692   9.3692
     9.5542   9.5542   9.5574   9.5574   9.8521   9.8542   9.8542   9.8674
     9.8674   9.8989   9.8989   9.9391   9.9720   9.9720  10.0121  10.1062
    10.1062  10.2450  10.2450  10.3634  10.3634  10.5487  10.5887  10.6095
    10.6843  10.6891  10.8190  10.8190  10.8558  10.8558  11.0819  11.1062
    11.1857  11.2823  11.3317  11.3317  11.4553  11.4554  11.4700  11.4700
    11.4978  11.5092  11.5567  11.7910  11.7910  11.9257  11.9263  11.9488
    11.9488  11.9798  11.9997  11.9997  12.0034  12.0288  12.0302  12.0497
    12.0497  12.0692  12.0924  12.0924  12.0954  12.1704  12.2012  12.2264
    12.2273  12.2414  12.2597  12.3107  12.3776  12.4897  12.4897  13.3622
    13.3646  13.3952  13.4111  13.4172  13.8773  13.8773  14.1034  14.1034
    14.4122  14.4122  14.5767  14.5767  14.8253  14.8253  14.8662  14.8662
    15.9131  15.9131  16.6393  16.6434  16.7957  16.8120  16.8293  16.9340
    16.9439  16.9788  16.9788  17.0140  17.1553  17.1553  17.6212  17.6212
    17.7764  17.8096  17.8424  17.8533  17.8533  17.8834  18.0106  18.0805
    18.0805  18.1860  18.1860  18.2013  18.2315  18.3623  18.5300  18.7538
    18.7542  18.7542

     the Fermi energy is    15.2298 ev

!    total energy              =  -14694.00932183 Ry
     Harris-Foulkes estimate   =  -14694.00931540 Ry
     estimated scf accuracy    <       0.00000078 Ry

     total all-electron energy =   -626921.605044 Ry

     The total energy is the sum of the following terms:

     one-electron contribution =    -714.67767868 Ry
     hartree contribution      =     656.68603941 Ry
     xc contribution           =    -737.85905449 Ry
     ewald contribution        =   -2196.78933708 Ry
     Hubbard energy            =       0.45881262 Ry
     one-center paw contrib.   =  -11701.82810362 Ry

     total magnetization       =     8.55 Bohr mag/cell
     absolute magnetization    =    37.04 Bohr mag/cell

     convergence has been achieved in  23 iterations

     Writing output data file mnau2.save/

     General routines

     Parallel routines

     Hubbard U routines

      19h

   This run was terminated on:   6:12:17   8Apr2019

   JOB DONE.