     Program PWSCF v.6.3MaX starts on 16May2019 at 13:49:50

     R & G space division:  proc/nbgrp/npool/nimage =      32
     Waiting for input...
     Reading input from standard input

     Current dimensions of program PWSCF are:
     Max number of different atomic species (ntypx) = 10
     Max number of k-points (npk) =  40000
     Max angular momentum in pseudopotentials (lmaxx) =  3
               file Mn.pbe-spn-kjpaw_psl.0.3.1.UPF: wavefunction(s)  3P 3D renormalized
               file Mn.pbe-spn-kjpaw_psl.0.3.1.UPF: wavefunction(s)  3P 3D renormalized
               file Au.pbe-dn-kjpaw_psl.0.1.UPF: wavefunction(s)  6S 6P 5D renormalized

     bravais-lattice index     =            0
     lattice parameter (alat)  =       6.3684  a.u.
     unit-cell volume          =    2685.0513 (a.u.)^3
     number of atoms/cell      =           24
     number of atomic types    =            3
     number of electrons       =       296.00
     number of Kohn-Sham states=          178
     kinetic-energy cutoff     =      45.0000  Ry
     charge density cutoff     =     400.0000  Ry
     convergence threshold     =      1.0E-06
     mixing beta               =       0.1000
     number of iterations used =            8  plain     mixing
     Exchange-correlation      = SLA PW PBX PBC ( 1  4  3  4 0 0)

     celldm(1)=   6.368377  celldm(2)=   0.000000  celldm(3)=   0.000000
     celldm(4)=   0.000000  celldm(5)=   0.000000  celldm(6)=   0.000000

     crystal axes: (cart. coord. in units of alat)
               a(1) = (   1.000000   0.000000   0.000000 )
               a(2) = (   0.000000   1.000000   0.000000 )
               a(3) = (   0.000000   0.000000  10.396000 )

     reciprocal axes: (cart. coord. in units 2 pi/alat)
               b(1) = (  1.000000  0.000000  0.000000 )
               b(2) = (  0.000000  1.000000  0.000000 )
               b(3) = (  0.000000  0.000000  0.096191 )

     PseudoPot. # 1 for Mn read from file:
     ./pseudo/Mn.pbe-spn-kjpaw_psl.0.3.1.UPF
     MD5 check sum: 7b43a3fb0e93e198b8dd8488d8cf503e
     Pseudo is Projector augmented-wave + core cor, Zval = 15.0
     Generated using "atomic" code by A. Dal Corso v.5.0.99 svn rev. 10869
     Shape of augmentation charge: PSQ
     Using radial grid of 1187 points,  6 beta functions with:
                l(1) =   0
                l(2) =   0
                l(3) =   1
                l(4) =   1
                l(5) =   2
                l(6) =   2
     Q(r) pseudized with 0 coefficients

     PseudoPot. # 2 for Mn read from file:
     ./pseudo/Mn.pbe-spn-kjpaw_psl.0.3.1.UPF
     MD5 check sum: 7b43a3fb0e93e198b8dd8488d8cf503e
     Pseudo is Projector augmented-wave + core cor, Zval = 15.0
     Generated using "atomic" code by A. Dal Corso v.5.0.99 svn rev. 10869
     Shape of augmentation charge: PSQ
     Using radial grid of 1187 points,  6 beta functions with:
                l(1) =   0
                l(2) =   0
                l(3) =   1
                l(4) =   1
                l(5) =   2
                l(6) =   2
     Q(r) pseudized with 0 coefficients

     PseudoPot. # 3 for Au read from file:
     ./pseudo/Au.pbe-dn-kjpaw_psl.0.1.UPF
     MD5 check sum: be11e2e8e535ebe2b3ccfb4f88f554cb
     Pseudo is Projector augmented-wave + core cor, Zval = 11.0
     Generated using "atomic" code by A. Dal Corso v.5.0.2 svn rev. 9415
     Shape of augmentation charge: PSQ
     Using radial grid of 1279 points,  6 beta functions with:
                l(1) =   0
                l(2) =   0
                l(3) =   1
                l(4) =   1
                l(5) =   2
                l(6) =   2
     Q(r) pseudized with 0 coefficients

     atomic species   valence    mass     pseudopotential
        Mn1           15.00    54.93800     Mn( 1.00)
        Mn2           15.00    54.93800     Mn( 1.00)
        Au            11.00   196.96600     Au( 1.00)

     Starting magnetic structure
     atomic species   magnetization
        Mn1          0.800
        Mn2         -0.800
        Au           0.000

     Full LDA+U calculation (l_max = 2) with parameters (eV):
     U(  1) =   3.1200   J(  1) =   0.7000   B(  1) =   0.0803
     U(  2) =   3.1200   J(  2) =   0.7000   B(  2) =   0.0803

      8 Sym. Ops. (no inversion) found

   Cartesian axes

     site n.     atom                  positions (alat units)
         1           Mn1 tau(   1) = (   0.0000000   0.0000000   0.0000000  )
         2           Mn1 tau(   2) = (   0.0000000   0.0000000   2.5990000  )
         3           Mn1 tau(   3) = (   0.0000000   0.0000000   5.1980000  )
         4           Mn2 tau(   4) = (   0.0000000   0.0000000   7.7970000  )
         5           Mn1 tau(   5) = (   0.5000000   0.5000000   1.2995000  )
         6           Mn1 tau(   6) = (   0.5000000   0.5000000   3.8985000  )
         7           Mn1 tau(   7) = (   0.5000000   0.5000000   6.4975000  )
         8           Mn2 tau(   8) = (   0.5000000   0.5000000   9.0965000  )
         9           Au  tau(   9) = (   0.5000000   0.5000000   2.1831600  )
        10           Au  tau(  10) = (   0.5000000   0.5000000   4.7821600  )
        11           Au  tau(  11) = (   0.5000000   0.5000000   7.3811600  )
        12           Au  tau(  12) = (   0.5000000   0.5000000   9.9801600  )
        13           Au  tau(  13) = (   0.5000000   0.5000000   0.4158400  )
        14           Au  tau(  14) = (   0.5000000   0.5000000   3.0148400  )
        15           Au  tau(  15) = (   0.5000000   0.5000000   5.6138400  )
        16           Au  tau(  16) = (   0.5000000   0.5000000   8.2128400  )
        17           Au  tau(  17) = (   0.0000000   0.0000000   0.8836600  )
        18           Au  tau(  18) = (   0.0000000   0.0000000   3.4826600  )
        19           Au  tau(  19) = (   0.0000000   0.0000000   6.0816600  )
        20           Au  tau(  20) = (   0.0000000   0.0000000   8.6806600  )
        21           Au  tau(  21) = (   0.0000000   0.0000000   1.7153400  )
        22           Au  tau(  22) = (   0.0000000   0.0000000   4.3143400  )
        23           Au  tau(  23) = (   0.0000000   0.0000000   6.9133400  )
        24           Au  tau(  24) = (   0.0000000   0.0000000   9.5123400  )

     number of k points=   135 (tetrahedron method)

     Number of k-points >= 100: set verbosity='high' to print them.

     Check: negative/imaginary core charge=   -0.000006    0.000000

     Initial potential from superposition of free atoms

     starting charge  295.99426, renormalised to  296.00000
     Number of +U iterations with fixed ns =  0
     Starting occupations:
 --- enter write_ns ---
 LDA+U parameters:
U(  1) =   3.1200   J(  1) =   0.7000   B(  1) =   0.0803
U(  2) =   3.1200   J(  2) =   0.7000   B(  2) =   0.0803
atom    1   Tr[ns(na)] (up, down, total) =   5.00000  0.00000  5.00000
   spin  1
    eigenvalues:
  1.000  1.000  1.000  1.000  1.000
    eigenvectors:
  1.000  0.000  0.000  0.000  0.000
  0.000  1.000  0.000  0.000  0.000
  0.000  0.000  1.000  0.000  0.000
  0.000  0.000  0.000  1.000  0.000
  0.000  0.000  0.000  0.000  1.000
    occupations:
  1.000  0.000  0.000  0.000  0.000
  0.000  1.000  0.000  0.000  0.000
  0.000  0.000  1.000  0.000  0.000
  0.000  0.000  0.000  1.000  0.000
  0.000  0.000  0.000  0.000  1.000
   spin  2
    eigenvalues:
  0.000  0.000  0.000  0.000  0.000
    eigenvectors:
  1.000  0.000  0.000  0.000  0.000
  0.000  1.000  0.000  0.000  0.000
  0.000  0.000  1.000  0.000  0.000
  0.000  0.000  0.000  1.000  0.000
  0.000  0.000  0.000  0.000  1.000
    occupations:
  0.000  0.000  0.000  0.000  0.000
  0.000  0.000  0.000  0.000  0.000
  0.000  0.000  0.000  0.000  0.000
  0.000  0.000  0.000  0.000  0.000
  0.000  0.000  0.000  0.000  0.000
atomic mag. moment =     5.000000
atom    2   Tr[ns(na)] (up, down, total) =   5.00000  0.00000  5.00000
   spin  1
    eigenvalues:
  1.000  1.000  1.000  1.000  1.000
    eigenvectors:
  1.000  0.000  0.000  0.000  0.000
  0.000  1.000  0.000  0.000  0.000
  0.000  0.000  1.000  0.000  0.000
  0.000  0.000  0.000  1.000  0.000
  0.000  0.000  0.000  0.000  1.000
    occupations:
  1.000  0.000  0.000  0.000  0.000
  0.000  1.000  0.000  0.000  0.000
  0.000  0.000  1.000  0.000  0.000
  0.000  0.000  0.000  1.000  0.000
  0.000  0.000  0.000  0.000  1.000
   spin  2
    eigenvalues:
  0.000  0.000  0.000  0.000  0.000
    eigenvectors:
  1.000  0.000  0.000  0.000  0.000
  0.000  1.000  0.000  0.000  0.000
  0.000  0.000  1.000  0.000  0.000
  0.000  0.000  0.000  1.000  0.000
  0.000  0.000  0.000  0.000  1.000
    occupations:
  0.000  0.000  0.000  0.000  0.000
  0.000  0.000  0.000  0.000  0.000
  0.000  0.000  0.000  0.000  0.000
  0.000  0.000  0.000  0.000  0.000
  0.000  0.000  0.000  0.000  0.000
atomic mag. moment =     5.000000
atom    3   Tr[ns(na)] (up, down, total) =   5.00000  0.00000  5.00000
   spin  1
    eigenvalues:
  1.000  1.000  1.000  1.000  1.000
    eigenvectors:
  1.000  0.000  0.000  0.000  0.000
  0.000  1.000  0.000  0.000  0.000
  0.000  0.000  1.000  0.000  0.000
  0.000  0.000  0.000  1.000  0.000
  0.000  0.000  0.000  0.000  1.000
    occupations:
  1.000  0.000  0.000  0.000  0.000
  0.000  1.000  0.000  0.000  0.000
  0.000  0.000  1.000  0.000  0.000
  0.000  0.000  0.000  1.000  0.000
  0.000  0.000  0.000  0.000  1.000
   spin  2
    eigenvalues:
  0.000  0.000  0.000  0.000  0.000
    eigenvectors:
  1.000  0.000  0.000  0.000  0.000
  0.000  1.000  0.000  0.000  0.000
  0.000  0.000  1.000  0.000  0.000
  0.000  0.000  0.000  1.000  0.000
  0.000  0.000  0.000  0.000  1.000
    occupations:
  0.000  0.000  0.000  0.000  0.000
  0.000  0.000  0.000  0.000  0.000
  0.000  0.000  0.000  0.000  0.000
  0.000  0.000  0.000  0.000  0.000
  0.000  0.000  0.000  0.000  0.000
atomic mag. moment =     5.000000
atom    4   Tr[ns(na)] (up, down, total) =   0.00000  5.00000  5.00000
   spin  1
    eigenvalues:
  0.000  0.000  0.000  0.000  0.000
    eigenvectors:
  1.000  0.000  0.000  0.000  0.000
  0.000  1.000  0.000  0.000  0.000
  0.000  0.000  1.000  0.000  0.000
  0.000  0.000  0.000  1.000  0.000
  0.000  0.000  0.000  0.000  1.000
    occupations:
  0.000  0.000  0.000  0.000  0.000
  0.000  0.000  0.000  0.000  0.000
  0.000  0.000  0.000  0.000  0.000
  0.000  0.000  0.000  0.000  0.000
  0.000  0.000  0.000  0.000  0.000
   spin  2
    eigenvalues:
  1.000  1.000  1.000  1.000  1.000
    eigenvectors:
  1.000  0.000  0.000  0.000  0.000
  0.000  1.000  0.000  0.000  0.000
  0.000  0.000  1.000  0.000  0.000
  0.000  0.000  0.000  1.000  0.000
  0.000  0.000  0.000  0.000  1.000
    occupations:
  1.000  0.000  0.000  0.000  0.000
  0.000  1.000  0.000  0.000  0.000
  0.000  0.000  1.000  0.000  0.000
  0.000  0.000  0.000  1.000  0.000
  0.000  0.000  0.000  0.000  1.000
atomic mag. moment =    -5.000000
atom    5   Tr[ns(na)] (up, down, total) =   5.00000  0.00000  5.00000
   spin  1
    eigenvalues:
  1.000  1.000  1.000  1.000  1.000
    eigenvectors:
  1.000  0.000  0.000  0.000  0.000
  0.000  1.000  0.000  0.000  0.000
  0.000  0.000  1.000  0.000  0.000
  0.000  0.000  0.000  1.000  0.000
  0.000  0.000  0.000  0.000  1.000
[...]
atomic mag. moment =    -4.590902
atom    5   Tr[ns(na)] (up, down, total) =   5.01751  0.41767  5.43517
   spin  1
    eigenvalues:
  1.003  1.003  1.003  1.004  1.004
    eigenvectors:
  0.000  0.000  0.000  1.000  0.000
  0.000  0.291  0.709  0.000  0.000
  0.000  0.709  0.291  0.000  0.000
  0.000  0.000  0.000  0.000  1.000
  1.000  0.000  0.000  0.000  0.000
    occupations:
  1.004 -0.000 -0.000  0.000  0.000
 -0.000  1.003 -0.000  0.000  0.000
 -0.000 -0.000  1.003  0.000  0.000
  0.000  0.000  0.000  1.004 -0.000
  0.000  0.000  0.000 -0.000  1.003
   spin  2
    eigenvalues:
  0.055  0.075  0.085  0.085  0.118
    eigenvectors:
  0.000  1.000  0.000  0.000  0.000
  0.000  0.000  0.338  0.662  0.000
  0.000  0.000  0.662  0.338  0.000
  1.000  0.000  0.000  0.000  0.000
  0.000  0.000  0.000  0.000  1.000
    occupations:
  0.075 -0.000 -0.000  0.000  0.000
 -0.000  0.085 -0.000  0.000  0.000
 -0.000 -0.000  0.085  0.000  0.000
  0.000  0.000  0.000  0.055 -0.000
  0.000  0.000  0.000 -0.000  0.118
atomic mag. moment =     4.599841
atom    6   Tr[ns(na)] (up, down, total) =   5.01759  0.41631  5.43390
   spin  1
    eigenvalues:
  1.003  1.003  1.003  1.004  1.004
    eigenvectors:
  0.000  0.000  0.000  1.000  0.000
  0.000  0.345  0.655  0.000  0.000
  0.000  0.655  0.345  0.000  0.000
  0.000  0.000  0.000  0.000  1.000
  1.000  0.000  0.000  0.000  0.000
    occupations:
  1.004 -0.000 -0.000  0.000  0.000
 -0.000  1.003 -0.000  0.000  0.000
 -0.000 -0.000  1.003  0.000  0.000
  0.000  0.000  0.000  1.004 -0.000
  0.000  0.000  0.000 -0.000  1.003
   spin  2
    eigenvalues:
  0.055  0.073  0.085  0.085  0.119
    eigenvectors:
  0.000  1.000  0.000  0.000  0.000
  0.000  0.000  0.385  0.615  0.000
  0.000  0.000  0.615  0.385  0.000
  1.000  0.000  0.000  0.000  0.000
  0.000  0.000  0.000  0.000  1.000
    occupations:
  0.073 -0.000 -0.000  0.000  0.000
 -0.000  0.085 -0.000  0.000  0.000
 -0.000 -0.000  0.085  0.000  0.000
  0.000  0.000  0.000  0.055 -0.000
  0.000  0.000  0.000 -0.000  0.119
atomic mag. moment =     4.601285
atom    7   Tr[ns(na)] (up, down, total) =   5.01738  0.42420  5.44158
   spin  1
    eigenvalues:
  1.003  1.003  1.003  1.004  1.004
    eigenvectors:
  0.000  0.000  0.000  1.000  0.000
  0.000  0.348  0.652  0.000  0.000
  0.000  0.652  0.348  0.000  0.000
  0.000  0.000  0.000  0.000  1.000
  1.000  0.000  0.000  0.000  0.000
    occupations:
  1.004 -0.000 -0.000  0.000  0.000
 -0.000  1.003 -0.000  0.000  0.000
 -0.000 -0.000  1.003  0.000  0.000
  0.000  0.000  0.000  1.004 -0.000
  0.000  0.000  0.000 -0.000  1.003
   spin  2
    eigenvalues:
  0.055  0.075  0.085  0.085  0.125
    eigenvectors:
  0.000  1.000  0.000  0.000  0.000
  0.000  0.000  0.450  0.550  0.000
  0.000  0.000  0.550  0.450  0.000
  1.000  0.000  0.000  0.000  0.000
  0.000  0.000  0.000  0.000  1.000
    occupations:
  0.075 -0.000 -0.000  0.000  0.000
 -0.000  0.085 -0.000  0.000  0.000
 -0.000 -0.000  0.085  0.000  0.000
  0.000  0.000  0.000  0.055 -0.000
  0.000  0.000  0.000 -0.000  0.125
atomic mag. moment =     4.593181
atom    8   Tr[ns(na)] (up, down, total) =   0.42656  5.01747  5.44403
   spin  1
    eigenvalues:
  0.056  0.076  0.085  0.085  0.125
    eigenvectors:
  0.000  1.000  0.000  0.000  0.000
  0.000  0.000  0.357  0.643  0.000
  0.000  0.000  0.643  0.357  0.000
  1.000  0.000  0.000  0.000  0.000
  0.000  0.000  0.000  0.000  1.000
    occupations:
  0.076 -0.000 -0.000  0.000  0.000
 -0.000  0.085 -0.000  0.000  0.000
 -0.000 -0.000  0.085  0.000  0.000
  0.000  0.000  0.000  0.056 -0.000
  0.000  0.000  0.000 -0.000  0.125
   spin  2
    eigenvalues:
  1.003  1.003  1.003  1.004  1.004
    eigenvectors:
  0.000  0.000  0.000  1.000  0.000
  0.000  0.323  0.677  0.000  0.000
  0.000  0.677  0.323  0.000  0.000
  0.000  0.000  0.000  0.000  1.000
  1.000  0.000  0.000  0.000  0.000
    occupations:
  1.004 -0.000 -0.000  0.000  0.000
 -0.000  1.003 -0.000  0.000  0.000
 -0.000 -0.000  1.003  0.000  0.000
  0.000  0.000  0.000  1.004 -0.000
  0.000  0.000  0.000 -0.000  1.003
atomic mag. moment =    -4.590912
N of occupied +U levels =   43.509358
 --- exit write_ns ---

     total energy              =  -14687.23349507 Ry
     Harris-Foulkes estimate   =  -14685.77475692 Ry
     estimated scf accuracy    <      11.61267187 Ry

     total magnetization       =    20.12 Bohr mag/cell
     absolute magnetization    =    41.38 Bohr mag/cell

     iteration #  2     ecut=    45.00 Ry     beta= 0.10
     Davidson diagonalization with overlap
     ethr =  3.92E-03,  avg # of iterations =  1.0

[...]

     iteration # 16     ecut=    45.00 Ry     beta= 0.10
     Davidson diagonalization with overlap
     c_bands:  1 eigenvalues not converged
     c_bands:  1 eigenvalues not converged
     ethr =  3.01E-06,  avg # of iterations =  5.4

[...]

     iteration # 18     ecut=    45.00 Ry     beta= 0.10
     Davidson diagonalization with overlap
     c_bands:  1 eigenvalues not converged
     ethr =  9.10E-07,  avg # of iterations =  2.9

[...]

     total energy              =  -14693.99132811 Ry
     Harris-Foulkes estimate   =  -14693.99132764 Ry
     estimated scf accuracy    <       0.00000150 Ry

[...]

     iteration # 32     ecut=    45.00 Ry     beta= 0.10
     Davidson diagonalization with overlap
     ethr =  5.08E-10,  avg # of iterations =  1.4

     Magnetic moment per site:
     atom:    1    charge:   13.5434    magn:    4.2026    constr:    0.0000
     atom:    2    charge:   13.5497    magn:    4.1625    constr:    0.0000
     atom:    3    charge:   13.5489    magn:    4.1652    constr:    0.0000
     atom:    4    charge:   13.5434    magn:   -4.2033    constr:    0.0000
     atom:    5    charge:   13.5490    magn:    4.1653    constr:    0.0000
     atom:    6    charge:   13.5498    magn:    4.1626    constr:    0.0000
     atom:    7    charge:   13.5436    magn:    4.2028    constr:    0.0000
     atom:    8    charge:   13.5435    magn:   -4.2033    constr:    0.0000
     atom:    9    charge:    9.0867    magn:    0.0273    constr:    0.0000
     atom:   10    charge:    9.0872    magn:    0.0308    constr:    0.0000
     atom:   11    charge:    9.0902    magn:   -0.0455    constr:    0.0000
     atom:   12    charge:    9.0895    magn:    0.0415    constr:    0.0000
     atom:   13    charge:    9.0886    magn:    0.0332    constr:    0.0000
     atom:   14    charge:    9.0868    magn:    0.0275    constr:    0.0000
     atom:   15    charge:    9.0878    magn:    0.0313    constr:    0.0000
     atom:   16    charge:    9.0891    magn:   -0.0375    constr:    0.0000
     atom:   17    charge:    9.0882    magn:    0.0313    constr:    0.0000
     atom:   18    charge:    9.0871    magn:    0.0275    constr:    0.0000
     atom:   19    charge:    9.0889    magn:    0.0333    constr:    0.0000
     atom:   20    charge:    9.0893    magn:   -0.0375    constr:    0.0000
     atom:   21    charge:    9.0876    magn:    0.0307    constr:    0.0000
     atom:   22    charge:    9.0870    magn:    0.0273    constr:    0.0000
     atom:   23    charge:    9.0898    magn:    0.0416    constr:    0.0000
     atom:   24    charge:    9.0905    magn:   -0.0455    constr:    0.0000

     End of self-consistent calculation
 --- enter write_ns ---
 LDA+U parameters:
U(  1) =   3.1200   J(  1) =   0.7000   B(  1) =   0.0803
U(  2) =   3.1200   J(  2) =   0.7000   B(  2) =   0.0803
atom    1   Tr[ns(na)] (up, down, total) =   4.96781  0.76394  5.73175
   spin  1
    eigenvalues:
  0.983  0.993  0.993  0.997  1.002
    eigenvectors:
  0.000  0.000  0.000  1.000  0.000
  0.000  0.287  0.713  0.000  0.000
  0.000  0.713  0.287  0.000  0.000
  0.000  0.000  0.000  0.000  1.000
  1.000  0.000  0.000  0.000  0.000
    occupations:
  0.997 -0.000 -0.000  0.000  0.000
 -0.000  0.993 -0.000  0.000  0.000
 -0.000 -0.000  0.993  0.000  0.000
  0.000  0.000  0.000  1.002 -0.000
  0.000  0.000  0.000 -0.000  0.983
   spin  2
    eigenvalues:
  0.067  0.135  0.151  0.151  0.261
    eigenvectors:
  0.000  1.000  0.000  0.000  0.000
  0.000  0.000  0.219  0.781  0.000
  0.000  0.000  0.781  0.219  0.000
  1.000  0.000  0.000  0.000  0.000
  0.000  0.000  0.000  0.000  1.000
    occupations:
  0.135 -0.000 -0.000  0.000  0.000
 -0.000  0.151 -0.000  0.000  0.000
 -0.000 -0.000  0.151  0.000  0.000
  0.000  0.000  0.000  0.067 -0.000
  0.000  0.000  0.000 -0.000  0.261
atomic mag. moment =     4.203864
atom    2   Tr[ns(na)] (up, down, total) =   4.96462  0.79605  5.76067
   spin  1
    eigenvalues:
  0.983  0.992  0.992  0.996  1.002
    eigenvectors:
  0.000  0.000  0.000  1.000  0.000
  0.000  0.266  0.734  0.000  0.000
  0.000  0.734  0.266  0.000  0.000
  0.000  0.000  0.000  0.000  1.000
  1.000  0.000  0.000  0.000  0.000
    occupations:
  0.996 -0.000 -0.000  0.000  0.000
 -0.000  0.992 -0.000  0.000  0.000
 -0.000 -0.000  0.992  0.000  0.000
  0.000  0.000  0.000  1.002 -0.000
  0.000  0.000  0.000 -0.000  0.983
   spin  2
    eigenvalues:
  0.066  0.151  0.151  0.151  0.276
    eigenvectors:
  0.000  1.000  0.000  0.000  0.000
  0.000  0.000  0.268  0.732  0.000
  0.000  0.000  0.732  0.268  0.000
  1.000  0.000  0.000  0.000  0.000
  0.000  0.000  0.000  0.000  1.000
    occupations:
  0.151 -0.000 -0.000  0.000  0.000
 -0.000  0.151 -0.000  0.000  0.000
 -0.000 -0.000  0.151  0.000  0.000
  0.000  0.000  0.000  0.066 -0.000
  0.000  0.000  0.000 -0.000  0.276
atomic mag. moment =     4.168570
atom    3   Tr[ns(na)] (up, down, total) =   4.96522  0.79420  5.75942
   spin  1
    eigenvalues:
  0.983  0.992  0.992  0.996  1.002
    eigenvectors:
  0.000  0.000  0.000  1.000  0.000
  0.000  0.247  0.753  0.000  0.000
  0.000  0.753  0.247  0.000  0.000
  0.000  0.000  0.000  0.000  1.000
  1.000  0.000  0.000  0.000  0.000
    occupations:
  0.996 -0.000 -0.000  0.000  0.000
 -0.000  0.992 -0.000  0.000  0.000
 -0.000 -0.000  0.992  0.000  0.000
  0.000  0.000  0.000  1.002 -0.000
  0.000  0.000  0.000 -0.000  0.983
   spin  2
    eigenvalues:
  0.066  0.149  0.152  0.152  0.276
    eigenvectors:
  0.000  1.000  0.000  0.000  0.000
  0.000  0.000  0.334  0.666  0.000
  0.000  0.000  0.666  0.334  0.000
  1.000  0.000  0.000  0.000  0.000
  0.000  0.000  0.000  0.000  1.000
    occupations:
  0.149 -0.000 -0.000  0.000  0.000
 -0.000  0.152 -0.000  0.000  0.000
 -0.000 -0.000  0.152  0.000  0.000
  0.000  0.000  0.000  0.066 -0.000
  0.000  0.000  0.000 -0.000  0.276
atomic mag. moment =     4.171018
atom    4   Tr[ns(na)] (up, down, total) =   0.76390  4.96807  5.73197
   spin  1
    eigenvalues:
  0.066  0.133  0.150  0.150  0.265
    eigenvectors:
  0.000  1.000  0.000  0.000  0.000
  0.000  0.000  0.342  0.658  0.000
  0.000  0.000  0.658  0.342  0.000
  1.000  0.000  0.000  0.000  0.000
  0.000  0.000  0.000  0.000  1.000
    occupations:
  0.133 -0.000 -0.000  0.000  0.000
 -0.000  0.150 -0.000  0.000  0.000
 -0.000 -0.000  0.150  0.000  0.000
  0.000  0.000  0.000  0.066 -0.000
  0.000  0.000  0.000 -0.000  0.265
   spin  2
    eigenvalues:
  0.983  0.993  0.993  0.996  1.002
    eigenvectors:
  0.000  0.000  0.000  1.000  0.000
  0.000  0.313  0.687  0.000  0.000
  0.000  0.687  0.313  0.000  0.000
  0.000  0.000  0.000  0.000  1.000
  1.000  0.000  0.000  0.000  0.000
    occupations:
  0.996 -0.000 -0.000  0.000  0.000
 -0.000  0.993 -0.000  0.000  0.000
 -0.000 -0.000  0.993  0.000  0.000
  0.000  0.000  0.000  1.002 -0.000
  0.000  0.000  0.000 -0.000  0.983
atomic mag. moment =    -4.204178
atom    5   Tr[ns(na)] (up, down, total) =   4.96524  0.79414  5.75938
   spin  1
    eigenvalues:
  0.983  0.992  0.992  0.996  1.002
    eigenvectors:
  0.000  0.000  0.000  1.000  0.000
  0.000  0.302  0.698  0.000  0.000
  0.000  0.698  0.302  0.000  0.000
  0.000  0.000  0.000  0.000  1.000
  1.000  0.000  0.000  0.000  0.000
    occupations:
  0.996 -0.000 -0.000  0.000  0.000
 -0.000  0.992 -0.000  0.000  0.000
 -0.000 -0.000  0.992  0.000  0.000
  0.000  0.000  0.000  1.002 -0.000
  0.000  0.000  0.000 -0.000  0.983
   spin  2
    eigenvalues:
  0.066  0.149  0.152  0.152  0.276
    eigenvectors:
  0.000  1.000  0.000  0.000  0.000
  0.000  0.000  0.320  0.680  0.000
  0.000  0.000  0.680  0.320  0.000
  1.000  0.000  0.000  0.000  0.000
  0.000  0.000  0.000  0.000  1.000
    occupations:
  0.149 -0.000 -0.000  0.000  0.000
 -0.000  0.152 -0.000  0.000  0.000
 -0.000 -0.000  0.152  0.000  0.000
  0.000  0.000  0.000  0.066 -0.000
  0.000  0.000  0.000 -0.000  0.276
atomic mag. moment =     4.171095
atom    6   Tr[ns(na)] (up, down, total) =   4.96465  0.79596  5.76061
   spin  1
    eigenvalues:
  0.983  0.992  0.992  0.996  1.002
    eigenvectors:
  0.000  0.000  0.000  1.000  0.000
  0.000  0.289  0.711  0.000  0.000
  0.000  0.711  0.289  0.000  0.000
  0.000  0.000  0.000  0.000  1.000
  1.000  0.000  0.000  0.000  0.000
    occupations:
  0.996 -0.000 -0.000  0.000  0.000
 -0.000  0.992 -0.000  0.000  0.000
 -0.000 -0.000  0.992  0.000  0.000
  0.000  0.000  0.000  1.002 -0.000
  0.000  0.000  0.000 -0.000  0.983
   spin  2
    eigenvalues:
  0.066  0.151  0.151  0.151  0.276
    eigenvectors:
  0.000  1.000  0.000  0.000  0.000
  0.000  0.000  0.302  0.698  0.000
  0.000  0.000  0.698  0.302  0.000
  1.000  0.000  0.000  0.000  0.000
  0.000  0.000  0.000  0.000  1.000
    occupations:
  0.151 -0.000 -0.000  0.000  0.000
 -0.000  0.151 -0.000  0.000  0.000
 -0.000 -0.000  0.151  0.000  0.000
  0.000  0.000  0.000  0.066 -0.000
  0.000  0.000  0.000 -0.000  0.276
atomic mag. moment =     4.168685
atom    7   Tr[ns(na)] (up, down, total) =   4.96785  0.76390  5.73175
   spin  1
    eigenvalues:
  0.983  0.993  0.993  0.997  1.002
    eigenvectors:
  0.000  0.000  0.000  1.000  0.000
  0.000  0.374  0.626  0.000  0.000
  0.000  0.626  0.374  0.000  0.000
  0.000  0.000  0.000  0.000  1.000
  1.000  0.000  0.000  0.000  0.000
    occupations:
  0.997 -0.000 -0.000  0.000  0.000
 -0.000  0.993 -0.000  0.000  0.000
 -0.000 -0.000  0.993  0.000  0.000
  0.000  0.000  0.000  1.002 -0.000
  0.000  0.000  0.000 -0.000  0.983
   spin  2
    eigenvalues:
  0.067  0.135  0.151  0.151  0.261
    eigenvectors:
  0.000  1.000  0.000  0.000  0.000
  0.000  0.000  0.325  0.675  0.000
  0.000  0.000  0.675  0.325  0.000
  1.000  0.000  0.000  0.000  0.000
  0.000  0.000  0.000  0.000  1.000
    occupations:
  0.135 -0.000 -0.000  0.000  0.000
 -0.000  0.151 -0.000  0.000  0.000
 -0.000 -0.000  0.151  0.000  0.000
  0.000  0.000  0.000  0.067 -0.000
  0.000  0.000  0.000 -0.000  0.261
atomic mag. moment =     4.203953
atom    8   Tr[ns(na)] (up, down, total) =   0.76392  4.96804  5.73196
   spin  1
    eigenvalues:
  0.066  0.133  0.150  0.150  0.265
    eigenvectors:
  0.000  1.000  0.000  0.000  0.000
  0.000  0.000  0.454  0.546  0.000
  0.000  0.000  0.546  0.454  0.000
  1.000  0.000  0.000  0.000  0.000
  0.000  0.000  0.000  0.000  1.000
    occupations:
  0.133 -0.000 -0.000  0.000  0.000
 -0.000  0.150 -0.000  0.000  0.000
 -0.000 -0.000  0.150  0.000  0.000
  0.000  0.000  0.000  0.066 -0.000
  0.000  0.000  0.000 -0.000  0.265
   spin  2
    eigenvalues:
  0.983  0.993  0.993  0.996  1.002
    eigenvectors:
  0.000  0.000  0.000  1.000  0.000
  0.000  0.357  0.643  0.000  0.000
  0.000  0.643  0.357  0.000  0.000
  0.000  0.000  0.000  0.000  1.000
  1.000  0.000  0.000  0.000  0.000
    occupations:
  0.996 -0.000 -0.000  0.000  0.000
 -0.000  0.993 -0.000  0.000  0.000
 -0.000 -0.000  0.993  0.000  0.000
  0.000  0.000  0.000  1.002 -0.000
  0.000  0.000  0.000 -0.000  0.983
atomic mag. moment =    -4.204122
N of occupied +U levels =   45.967507
 --- exit write_ns ---

     Number of k-points >= 100: set verbosity='high' to print the bands.

     the Fermi energy is    15.5026 ev

!    total energy              =  -14693.99133045 Ry
     Harris-Foulkes estimate   =  -14693.99132824 Ry
     estimated scf accuracy    <       0.00000063 Ry

     total all-electron energy =   -626921.587052 Ry

     The total energy is the sum of the following terms:

     one-electron contribution =    -698.80028253 Ry
     hartree contribution      =     651.79863191 Ry
     xc contribution           =    -738.05773181 Ry
     ewald contribution        =   -2207.56121140 Ry
     Hubbard energy            =       0.47229942 Ry
     one-center paw contrib.   =  -11701.84303604 Ry

     total magnetization       =    17.02 Bohr mag/cell
     absolute magnetization    =    36.88 Bohr mag/cell

     convergence has been achieved in  32 iterations

     Writing output data file mnau2.save/

     General routines

     Parallel routines

     Hubbard U routines

      43h

   This run was terminated on:  16:33: 3  16May2019

   JOB DONE.