     Program PWSCF v.6.3MaX starts on 16May2019 at 23:58:18

     R & G space division:  proc/nbgrp/npool/nimage =      32
     Waiting for input...
     Reading input from standard input

     Current dimensions of program PWSCF are:
     Max number of different atomic species (ntypx) = 10
     Max number of k-points (npk) =  40000
     Max angular momentum in pseudopotentials (lmaxx) =  3
               file Mn.pbe-spn-kjpaw_psl.0.3.1.UPF: wavefunction(s)  3P 3D renormalized
               file Mn.pbe-spn-kjpaw_psl.0.3.1.UPF: wavefunction(s)  3P 3D renormalized
               file Au.pbe-dn-kjpaw_psl.0.1.UPF: wavefunction(s)  6S 6P 5D renormalized

     bravais-lattice index     =            0
     lattice parameter (alat)  =       6.3684  a.u.
     unit-cell volume          =    2685.0513 (a.u.)^3
     number of atoms/cell      =           24
     number of atomic types    =            3
     number of electrons       =       296.00
     number of Kohn-Sham states=          178
     kinetic-energy cutoff     =      45.0000  Ry
     charge density cutoff     =     400.0000  Ry
     convergence threshold     =      1.0E-06
     mixing beta               =       0.1000
     number of iterations used =            8  plain     mixing
     Exchange-correlation      = SLA PW PBX PBC ( 1  4  3  4 0 0)

     celldm(1)=   6.368377  celldm(2)=   0.000000  celldm(3)=   0.000000
     celldm(4)=   0.000000  celldm(5)=   0.000000  celldm(6)=   0.000000

     crystal axes: (cart. coord. in units of alat)
               a(1) = (   1.000000   0.000000   0.000000 )
               a(2) = (   0.000000   1.000000   0.000000 )
               a(3) = (   0.000000   0.000000  10.396000 )

     reciprocal axes: (cart. coord. in units 2 pi/alat)
               b(1) = (  1.000000  0.000000  0.000000 )
               b(2) = (  0.000000  1.000000  0.000000 )
               b(3) = (  0.000000  0.000000  0.096191 )

     PseudoPot. # 1 for Mn read from file:
     ./pseudo/Mn.pbe-spn-kjpaw_psl.0.3.1.UPF
     MD5 check sum: 7b43a3fb0e93e198b8dd8488d8cf503e
     Pseudo is Projector augmented-wave + core cor, Zval = 15.0
     Generated using "atomic" code by A. Dal Corso v.5.0.99 svn rev. 10869
     Shape of augmentation charge: PSQ
     Using radial grid of 1187 points,  6 beta functions with:
                l(1) =   0
                l(2) =   0
                l(3) =   1
                l(4) =   1
                l(5) =   2
                l(6) =   2
     Q(r) pseudized with 0 coefficients

     PseudoPot. # 2 for Mn read from file:
     ./pseudo/Mn.pbe-spn-kjpaw_psl.0.3.1.UPF
     MD5 check sum: 7b43a3fb0e93e198b8dd8488d8cf503e
     Pseudo is Projector augmented-wave + core cor, Zval = 15.0
     Generated using "atomic" code by A. Dal Corso v.5.0.99 svn rev. 10869
     Shape of augmentation charge: PSQ
     Using radial grid of 1187 points,  6 beta functions with:
                l(1) =   0
                l(2) =   0
                l(3) =   1
                l(4) =   1
                l(5) =   2
                l(6) =   2
     Q(r) pseudized with 0 coefficients

     PseudoPot. # 3 for Au read from file:
     ./pseudo/Au.pbe-dn-kjpaw_psl.0.1.UPF
     MD5 check sum: be11e2e8e535ebe2b3ccfb4f88f554cb
     Pseudo is Projector augmented-wave + core cor, Zval = 11.0
     Generated using "atomic" code by A. Dal Corso v.5.0.2 svn rev. 9415
     Shape of augmentation charge: PSQ
     Using radial grid of 1279 points,  6 beta functions with:
                l(1) =   0
                l(2) =   0
                l(3) =   1
                l(4) =   1
                l(5) =   2
                l(6) =   2
     Q(r) pseudized with 0 coefficients

     atomic species   valence    mass     pseudopotential
        Mn1           15.00    54.93800     Mn( 1.00)
        Mn2           15.00    54.93800     Mn( 1.00)
        Au            11.00   196.96600     Au( 1.00)

     Starting magnetic structure
     atomic species   magnetization
        Mn1          0.800
        Mn2         -0.800
        Au           0.000

     Full LDA+U calculation (l_max = 2) with parameters (eV):
     U(  1) =   3.1200   J(  1) =   0.7000   B(  1) =   0.0803
     U(  2) =   3.1200   J(  2) =   0.7000   B(  2) =   0.0803

      8 Sym. Ops. (no inversion) found

   Cartesian axes

     site n.     atom                  positions (alat units)
         1           Mn1 tau(   1) = (   0.0000000   0.0000000   0.0000000  )
         2           Mn1 tau(   2) = (   0.0000000   0.0000000   2.5990000  )
         3           Mn1 tau(   3) = (   0.0000000   0.0000000   5.1980000  )
         4           Mn2 tau(   4) = (   0.0000000   0.0000000   7.7970000  )
         5           Mn1 tau(   5) = (   0.5000000   0.5000000   1.2995000  )
         6           Mn2 tau(   6) = (   0.5000000   0.5000000   3.8985000  )
         7           Mn2 tau(   7) = (   0.5000000   0.5000000   6.4975000  )
         8           Mn2 tau(   8) = (   0.5000000   0.5000000   9.0965000  )
         9           Au  tau(   9) = (   0.5000000   0.5000000   2.1831600  )
        10           Au  tau(  10) = (   0.5000000   0.5000000   4.7821600  )
        11           Au  tau(  11) = (   0.5000000   0.5000000   7.3811600  )
        12           Au  tau(  12) = (   0.5000000   0.5000000   9.9801600  )
        13           Au  tau(  13) = (   0.5000000   0.5000000   0.4158400  )
        14           Au  tau(  14) = (   0.5000000   0.5000000   3.0148400  )
        15           Au  tau(  15) = (   0.5000000   0.5000000   5.6138400  )
        16           Au  tau(  16) = (   0.5000000   0.5000000   8.2128400  )
        17           Au  tau(  17) = (   0.0000000   0.0000000   0.8836600  )
        18           Au  tau(  18) = (   0.0000000   0.0000000   3.4826600  )
        19           Au  tau(  19) = (   0.0000000   0.0000000   6.0816600  )
        20           Au  tau(  20) = (   0.0000000   0.0000000   8.6806600  )
        21           Au  tau(  21) = (   0.0000000   0.0000000   1.7153400  )
        22           Au  tau(  22) = (   0.0000000   0.0000000   4.3143400  )
        23           Au  tau(  23) = (   0.0000000   0.0000000   6.9133400  )
        24           Au  tau(  24) = (   0.0000000   0.0000000   9.5123400  )

     number of k points=   135 (tetrahedron method)

     Number of k-points >= 100: set verbosity='high' to print them.

     Check: negative/imaginary core charge=   -0.000006    0.000000

     Initial potential from superposition of free atoms

     starting charge  295.99426, renormalised to  296.00000
     Number of +U iterations with fixed ns =  0
     Starting occupations:
 --- enter write_ns ---
 LDA+U parameters:
U(  1) =   3.1200   J(  1) =   0.7000   B(  1) =   0.0803
U(  2) =   3.1200   J(  2) =   0.7000   B(  2) =   0.0803
atom    1   Tr[ns(na)] (up, down, total) =   5.00000  0.00000  5.00000
   spin  1
    eigenvalues:
  1.000  1.000  1.000  1.000  1.000
    eigenvectors:
  1.000  0.000  0.000  0.000  0.000
  0.000  1.000  0.000  0.000  0.000
  0.000  0.000  1.000  0.000  0.000
  0.000  0.000  0.000  1.000  0.000
  0.000  0.000  0.000  0.000  1.000
    occupations:
  1.000  0.000  0.000  0.000  0.000
  0.000  1.000  0.000  0.000  0.000
  0.000  0.000  1.000  0.000  0.000
  0.000  0.000  0.000  1.000  0.000
  0.000  0.000  0.000  0.000  1.000
   spin  2
    eigenvalues:
  0.000  0.000  0.000  0.000  0.000
    eigenvectors:
  1.000  0.000  0.000  0.000  0.000
  0.000  1.000  0.000  0.000  0.000
  0.000  0.000  1.000  0.000  0.000
  0.000  0.000  0.000  1.000  0.000
  0.000  0.000  0.000  0.000  1.000
    occupations:
  0.000  0.000  0.000  0.000  0.000
  0.000  0.000  0.000  0.000  0.000
  0.000  0.000  0.000  0.000  0.000
  0.000  0.000  0.000  0.000  0.000
  0.000  0.000  0.000  0.000  0.000
atomic mag. moment =     5.000000
atom    2   Tr[ns(na)] (up, down, total) =   5.00000  0.00000  5.00000
   spin  1
    eigenvalues:
  1.000  1.000  1.000  1.000  1.000
    eigenvectors:
  1.000  0.000  0.000  0.000  0.000
  0.000  1.000  0.000  0.000  0.000
  0.000  0.000  1.000  0.000  0.000
  0.000  0.000  0.000  1.000  0.000
  0.000  0.000  0.000  0.000  1.000
    occupations:
  1.000  0.000  0.000  0.000  0.000
  0.000  1.000  0.000  0.000  0.000
  0.000  0.000  1.000  0.000  0.000
  0.000  0.000  0.000  1.000  0.000
  0.000  0.000  0.000  0.000  1.000
   spin  2
    eigenvalues:
  0.000  0.000  0.000  0.000  0.000
    eigenvectors:
  1.000  0.000  0.000  0.000  0.000
  0.000  1.000  0.000  0.000  0.000
  0.000  0.000  1.000  0.000  0.000
  0.000  0.000  0.000  1.000  0.000
  0.000  0.000  0.000  0.000  1.000
    occupations:
  0.000  0.000  0.000  0.000  0.000
  0.000  0.000  0.000  0.000  0.000
  0.000  0.000  0.000  0.000  0.000
  0.000  0.000  0.000  0.000  0.000
  0.000  0.000  0.000  0.000  0.000
atomic mag. moment =     5.000000
atom    3   Tr[ns(na)] (up, down, total) =   5.00000  0.00000  5.00000
   spin  1
    eigenvalues:
  1.000  1.000  1.000  1.000  1.000
    eigenvectors:
  1.000  0.000  0.000  0.000  0.000
  0.000  1.000  0.000  0.000  0.000
  0.000  0.000  1.000  0.000  0.000
  0.000  0.000  0.000  1.000  0.000
  0.000  0.000  0.000  0.000  1.000
    occupations:
  1.000  0.000  0.000  0.000  0.000
  0.000  1.000  0.000  0.000  0.000
  0.000  0.000  1.000  0.000  0.000
  0.000  0.000  0.000  1.000  0.000
  0.000  0.000  0.000  0.000  1.000
   spin  2
    eigenvalues:
  0.000  0.000  0.000  0.000  0.000
    eigenvectors:
  1.000  0.000  0.000  0.000  0.000
  0.000  1.000  0.000  0.000  0.000
  0.000  0.000  1.000  0.000  0.000
  0.000  0.000  0.000  1.000  0.000
  0.000  0.000  0.000  0.000  1.000
    occupations:
  0.000  0.000  0.000  0.000  0.000
  0.000  0.000  0.000  0.000  0.000
  0.000  0.000  0.000  0.000  0.000
  0.000  0.000  0.000  0.000  0.000
  0.000  0.000  0.000  0.000  0.000
atomic mag. moment =     5.000000
atom    4   Tr[ns(na)] (up, down, total) =   0.00000  5.00000  5.00000
   spin  1
    eigenvalues:
  0.000  0.000  0.000  0.000  0.000
    eigenvectors:
  1.000  0.000  0.000  0.000  0.000
  0.000  1.000  0.000  0.000  0.000
  0.000  0.000  1.000  0.000  0.000
  0.000  0.000  0.000  1.000  0.000
  0.000  0.000  0.000  0.000  1.000
    occupations:
  0.000  0.000  0.000  0.000  0.000
  0.000  0.000  0.000  0.000  0.000
  0.000  0.000  0.000  0.000  0.000
  0.000  0.000  0.000  0.000  0.000
  0.000  0.000  0.000  0.000  0.000
   spin  2
    eigenvalues:
  1.000  1.000  1.000  1.000  1.000
    eigenvectors:
  1.000  0.000  0.000  0.000  0.000
  0.000  1.000  0.000  0.000  0.000
  0.000  0.000  1.000  0.000  0.000
  0.000  0.000  0.000  1.000  0.000
  0.000  0.000  0.000  0.000  1.000
    occupations:
  1.000  0.000  0.000  0.000  0.000
  0.000  1.000  0.000  0.000  0.000
  0.000  0.000  1.000  0.000  0.000
  0.000  0.000  0.000  1.000  0.000
  0.000  0.000  0.000  0.000  1.000
atomic mag. moment =    -5.000000
atom    5   Tr[ns(na)] (up, down, total) =   5.00000  0.00000  5.00000
   spin  1
    eigenvalues:
  1.000  1.000  1.000  1.000  1.000
    eigenvectors:
  1.000  0.000  0.000  0.000  0.000
  0.000  1.000  0.000  0.000  0.000
  0.000  0.000  1.000  0.000  0.000
  0.000  0.000  0.000  1.000  0.000
  0.000  0.000  0.000  0.000  1.000
[...]
   spin  2
    eigenvalues:
  1.003  1.003  1.003  1.004  1.004
    eigenvectors:
  0.000  0.000  0.000  1.000  0.000
  0.000  0.326  0.674  0.000  0.000
  0.000  0.674  0.326  0.000  0.000
  0.000  0.000  0.000  0.000  1.000
  1.000  0.000  0.000  0.000  0.000
    occupations:
  1.004 -0.000 -0.000  0.000  0.000
 -0.000  1.003 -0.000  0.000  0.000
 -0.000 -0.000  1.003  0.000  0.000
  0.000  0.000  0.000  1.004 -0.000
  0.000  0.000  0.000 -0.000  1.003
atomic mag. moment =    -4.599652
atom    5   Tr[ns(na)] (up, down, total) =   5.01759  0.41793  5.43551
   spin  1
    eigenvalues:
  1.003  1.003  1.003  1.004  1.004
    eigenvectors:
  0.000  0.000  0.000  1.000  0.000
  0.000  0.351  0.649  0.000  0.000
  0.000  0.649  0.351  0.000  0.000
  0.000  0.000  0.000  0.000  1.000
  1.000  0.000  0.000  0.000  0.000
    occupations:
  1.004 -0.000 -0.000  0.000  0.000
 -0.000  1.003 -0.000  0.000  0.000
 -0.000 -0.000  1.003  0.000  0.000
  0.000  0.000  0.000  1.004 -0.000
  0.000  0.000  0.000 -0.000  1.003
   spin  2
    eigenvalues:
  0.055  0.076  0.085  0.085  0.116
    eigenvectors:
  0.000  1.000  0.000  0.000  0.000
  0.000  0.000  0.374  0.626  0.000
  0.000  0.000  0.626  0.374  0.000
  1.000  0.000  0.000  0.000  0.000
  0.000  0.000  0.000  0.000  1.000
    occupations:
  0.076 -0.000 -0.000  0.000  0.000
 -0.000  0.085 -0.000  0.000  0.000
 -0.000 -0.000  0.085  0.000  0.000
  0.000  0.000  0.000  0.055 -0.000
  0.000  0.000  0.000 -0.000  0.116
atomic mag. moment =     4.599660
atom    6   Tr[ns(na)] (up, down, total) =   0.42537  5.01743  5.44279
   spin  1
    eigenvalues:
  0.055  0.075  0.083  0.083  0.129
    eigenvectors:
  0.000  1.000  0.000  0.000  0.000
  0.000  0.000  0.332  0.668  0.000
  0.000  0.000  0.668  0.332  0.000
  1.000  0.000  0.000  0.000  0.000
  0.000  0.000  0.000  0.000  1.000
    occupations:
  0.075 -0.000 -0.000  0.000  0.000
 -0.000  0.083 -0.000  0.000  0.000
 -0.000 -0.000  0.083  0.000  0.000
  0.000  0.000  0.000  0.055 -0.000
  0.000  0.000  0.000 -0.000  0.129
   spin  2
    eigenvalues:
  1.003  1.003  1.003  1.004  1.004
    eigenvectors:
  0.000  0.000  0.000  1.000  0.000
  0.000  0.288  0.712  0.000  0.000
  0.000  0.712  0.288  0.000  0.000
  0.000  0.000  0.000  0.000  1.000
  1.000  0.000  0.000  0.000  0.000
    occupations:
  1.004 -0.000 -0.000  0.000  0.000
 -0.000  1.003 -0.000  0.000  0.000
 -0.000 -0.000  1.003  0.000  0.000
  0.000  0.000  0.000  1.004 -0.000
  0.000  0.000  0.000 -0.000  1.003
atomic mag. moment =    -4.592061
atom    7   Tr[ns(na)] (up, down, total) =   0.42288  5.01744  5.44032
   spin  1
    eigenvalues:
  0.055  0.074  0.084  0.084  0.126
    eigenvectors:
  0.000  1.000  0.000  0.000  0.000
  0.000  0.000  0.399  0.601  0.000
  0.000  0.000  0.601  0.399  0.000
  1.000  0.000  0.000  0.000  0.000
  0.000  0.000  0.000  0.000  1.000
    occupations:
  0.074 -0.000 -0.000  0.000  0.000
 -0.000  0.084 -0.000  0.000  0.000
 -0.000 -0.000  0.084  0.000  0.000
  0.000  0.000  0.000  0.055 -0.000
  0.000  0.000  0.000 -0.000  0.126
   spin  2
    eigenvalues:
  1.003  1.003  1.003  1.004  1.004
    eigenvectors:
  0.000  0.000  0.000  1.000  0.000
  0.000  0.334  0.666  0.000  0.000
  0.000  0.666  0.334  0.000  0.000
  0.000  0.000  0.000  0.000  1.000
  1.000  0.000  0.000  0.000  0.000
    occupations:
  1.004 -0.000 -0.000  0.000  0.000
 -0.000  1.003 -0.000  0.000  0.000
 -0.000 -0.000  1.003  0.000  0.000
  0.000  0.000  0.000  1.004 -0.000
  0.000  0.000  0.000 -0.000  1.003
atomic mag. moment =    -4.594565
atom    8   Tr[ns(na)] (up, down, total) =   0.42294  5.01739  5.44033
   spin  1
    eigenvalues:
  0.055  0.075  0.084  0.084  0.125
    eigenvectors:
  0.000  1.000  0.000  0.000  0.000
  0.000  0.000  0.386  0.614  0.000
  0.000  0.000  0.614  0.386  0.000
  1.000  0.000  0.000  0.000  0.000
  0.000  0.000  0.000  0.000  1.000
    occupations:
  0.075 -0.000 -0.000  0.000  0.000
 -0.000  0.084 -0.000  0.000  0.000
 -0.000 -0.000  0.084  0.000  0.000
  0.000  0.000  0.000  0.055 -0.000
  0.000  0.000  0.000 -0.000  0.125
   spin  2
    eigenvalues:
  1.003  1.003  1.003  1.004  1.004
    eigenvectors:
  0.000  0.000  0.000  1.000  0.000
  0.000  0.285  0.715  0.000  0.000
  0.000  0.715  0.285  0.000  0.000
  0.000  0.000  0.000  0.000  1.000
  1.000  0.000  0.000  0.000  0.000
    occupations:
  1.004 -0.000 -0.000  0.000  0.000
 -0.000  1.003 -0.000  0.000  0.000
 -0.000 -0.000  1.003  0.000  0.000
  0.000  0.000  0.000  1.004 -0.000
  0.000  0.000  0.000 -0.000  1.003
atomic mag. moment =    -4.594452
N of occupied +U levels =   43.517414
 --- exit write_ns ---

     total energy              =  -14687.24165283 Ry
     Harris-Foulkes estimate   =  -14685.78447625 Ry
     estimated scf accuracy    <      11.61886116 Ry

     total magnetization       =    -0.00 Bohr mag/cell
     absolute magnetization    =    41.42 Bohr mag/cell

     iteration #  2     ecut=    45.00 Ry     beta= 0.10
     Davidson diagonalization with overlap
     ethr =  3.93E-03,  avg # of iterations =  1.0

[...]

     total energy              =  -14693.98555012 Ry
     Harris-Foulkes estimate   =  -14693.98554939 Ry
     estimated scf accuracy    <       0.00000112 Ry

[...]

     iteration # 28     ecut=    45.00 Ry     beta= 0.10
     Davidson diagonalization with overlap
     ethr =  3.78E-10,  avg # of iterations =  2.7

     Magnetic moment per site:
     atom:    1    charge:   13.5435    magn:    4.2033    constr:    0.0000
     atom:    2    charge:   13.5412    magn:    4.2206    constr:    0.0000
     atom:    3    charge:   13.5387    magn:    4.2306    constr:    0.0000
     atom:    4    charge:   13.5478    magn:   -4.1735    constr:    0.0000
     atom:    5    charge:   13.5479    magn:    4.1735    constr:    0.0000
     atom:    6    charge:   13.5388    magn:   -4.2306    constr:    0.0000
     atom:    7    charge:   13.5414    magn:   -4.2206    constr:    0.0000
     atom:    8    charge:   13.5437    magn:   -4.2033    constr:    0.0000
     atom:    9    charge:    9.0887    magn:    0.0344    constr:    0.0000
     atom:   10    charge:    9.0916    magn:    0.0456    constr:    0.0000
     atom:   11    charge:    9.0884    magn:   -0.0373    constr:    0.0000
     atom:   12    charge:    9.0897    magn:    0.0422    constr:    0.0000
     atom:   13    charge:    9.0883    magn:    0.0349    constr:    0.0000
     atom:   14    charge:    9.0900    magn:    0.0446    constr:    0.0000
     atom:   15    charge:    9.0920    magn:    0.0413    constr:    0.0000
     atom:   16    charge:    9.0880    magn:   -0.0359    constr:    0.0000
     atom:   17    charge:    9.0883    magn:    0.0359    constr:    0.0000
     atom:   18    charge:    9.0923    magn:   -0.0413    constr:    0.0000
     atom:   19    charge:    9.0903    magn:   -0.0446    constr:    0.0000
     atom:   20    charge:    9.0886    magn:   -0.0349    constr:    0.0000
     atom:   21    charge:    9.0887    magn:    0.0373    constr:    0.0000
     atom:   22    charge:    9.0919    magn:   -0.0456    constr:    0.0000
     atom:   23    charge:    9.0890    magn:   -0.0344    constr:    0.0000
     atom:   24    charge:    9.0900    magn:   -0.0422    constr:    0.0000

     End of self-consistent calculation
 --- enter write_ns ---
 LDA+U parameters:
U(  1) =   3.1200   J(  1) =   0.7000   B(  1) =   0.0803
U(  2) =   3.1200   J(  2) =   0.7000   B(  2) =   0.0803
atom    1   Tr[ns(na)] (up, down, total) =   4.96785  0.76347  5.73132
   spin  1
    eigenvalues:
  0.983  0.993  0.993  0.997  1.002
    eigenvectors:
  0.000  0.000  0.000  1.000  0.000
  0.000  0.345  0.655  0.000  0.000
  0.000  0.655  0.345  0.000  0.000
  0.000  0.000  0.000  0.000  1.000
  1.000  0.000  0.000  0.000  0.000
    occupations:
  0.997 -0.000 -0.000  0.000  0.000
 -0.000  0.993 -0.000  0.000  0.000
 -0.000 -0.000  0.993  0.000  0.000
  0.000  0.000  0.000  1.002 -0.000
  0.000  0.000  0.000 -0.000  0.983
   spin  2
    eigenvalues:
  0.067  0.134  0.150  0.150  0.263
    eigenvectors:
  0.000  1.000  0.000  0.000  0.000
  0.000  0.000  0.344  0.656  0.000
  0.000  0.000  0.656  0.344  0.000
  1.000  0.000  0.000  0.000  0.000
  0.000  0.000  0.000  0.000  1.000
    occupations:
  0.134 -0.000 -0.000  0.000  0.000
 -0.000  0.150 -0.000  0.000  0.000
 -0.000 -0.000  0.150  0.000  0.000
  0.000  0.000  0.000  0.067 -0.000
  0.000  0.000  0.000 -0.000  0.263
atomic mag. moment =     4.204375
atom    2   Tr[ns(na)] (up, down, total) =   4.97025  0.74923  5.71949
   spin  1
    eigenvalues:
  0.984  0.993  0.993  0.998  1.002
    eigenvectors:
  0.000  0.000  0.000  1.000  0.000
  0.000  0.363  0.637  0.000  0.000
  0.000  0.637  0.363  0.000  0.000
  0.000  0.000  0.000  0.000  1.000
  1.000  0.000  0.000  0.000  0.000
    occupations:
  0.998 -0.000 -0.000  0.000  0.000
 -0.000  0.993 -0.000  0.000  0.000
 -0.000 -0.000  0.993  0.000  0.000
  0.000  0.000  0.000  1.002 -0.000
  0.000  0.000  0.000 -0.000  0.984
   spin  2
    eigenvalues:
  0.067  0.122  0.152  0.152  0.256
    eigenvectors:
  0.000  1.000  0.000  0.000  0.000
  0.000  0.000  0.290  0.710  0.000
  0.000  0.000  0.710  0.290  0.000
  1.000  0.000  0.000  0.000  0.000
  0.000  0.000  0.000  0.000  1.000
    occupations:
  0.122 -0.000 -0.000  0.000  0.000
 -0.000  0.152 -0.000  0.000  0.000
 -0.000 -0.000  0.152  0.000  0.000
  0.000  0.000  0.000  0.067 -0.000
  0.000  0.000  0.000 -0.000  0.256
atomic mag. moment =     4.221018
atom    3   Tr[ns(na)] (up, down, total) =   4.96949  0.74059  5.71008
   spin  1
    eigenvalues:
  0.984  0.994  0.994  0.996  1.002
    eigenvectors:
  0.000  0.000  0.000  1.000  0.000
  0.000  0.303  0.697  0.000  0.000
  0.000  0.697  0.303  0.000  0.000
  0.000  0.000  0.000  0.000  1.000
  1.000  0.000  0.000  0.000  0.000
    occupations:
  0.996 -0.000 -0.000  0.000  0.000
 -0.000  0.994 -0.000  0.000  0.000
 -0.000 -0.000  0.994  0.000  0.000
  0.000  0.000  0.000  1.002 -0.000
  0.000  0.000  0.000 -0.000  0.984
   spin  2
    eigenvalues:
  0.068  0.116  0.152  0.152  0.253
    eigenvectors:
  0.000  1.000  0.000  0.000  0.000
  0.000  0.000  0.371  0.629  0.000
  0.000  0.000  0.629  0.371  0.000
  1.000  0.000  0.000  0.000  0.000
  0.000  0.000  0.000  0.000  1.000
    occupations:
  0.116 -0.000 -0.000  0.000  0.000
 -0.000  0.152 -0.000  0.000  0.000
 -0.000 -0.000  0.152  0.000  0.000
  0.000  0.000  0.000  0.068 -0.000
  0.000  0.000  0.000 -0.000  0.253
atomic mag. moment =     4.228893
atom    4   Tr[ns(na)] (up, down, total) =   0.78831  4.96628  5.75459
   spin  1
    eigenvalues:
  0.065  0.140  0.153  0.153  0.276
    eigenvectors:
  0.000  1.000  0.000  0.000  0.000
  0.000  0.000  0.224  0.776  0.000
  0.000  0.000  0.776  0.224  0.000
  1.000  0.000  0.000  0.000  0.000
  0.000  0.000  0.000  0.000  1.000
    occupations:
  0.140 -0.000 -0.000  0.000  0.000
 -0.000  0.153 -0.000  0.000  0.000
 -0.000 -0.000  0.153  0.000  0.000
  0.000  0.000  0.000  0.065 -0.000
  0.000  0.000  0.000 -0.000  0.276
   spin  2
    eigenvalues:
  0.983  0.993  0.993  0.996  1.002
    eigenvectors:
  0.000  0.000  0.000  1.000  0.000
  0.000  0.263  0.737  0.000  0.000
  0.000  0.737  0.263  0.000  0.000
  0.000  0.000  0.000  0.000  1.000
  1.000  0.000  0.000  0.000  0.000
    occupations:
  0.996 -0.000 -0.000  0.000  0.000
 -0.000  0.993 -0.000  0.000  0.000
 -0.000 -0.000  0.993  0.000  0.000
  0.000  0.000  0.000  1.002 -0.000
  0.000  0.000  0.000 -0.000  0.983
atomic mag. moment =    -4.177963
atom    5   Tr[ns(na)] (up, down, total) =   4.96627  0.78824  5.75451
   spin  1
    eigenvalues:
  0.983  0.993  0.993  0.996  1.002
    eigenvectors:
  0.000  0.000  0.000  1.000  0.000
  0.000  0.289  0.711  0.000  0.000
  0.000  0.711  0.289  0.000  0.000
  0.000  0.000  0.000  0.000  1.000
  1.000  0.000  0.000  0.000  0.000
    occupations:
  0.996 -0.000 -0.000  0.000  0.000
 -0.000  0.993 -0.000  0.000  0.000
 -0.000 -0.000  0.993  0.000  0.000
  0.000  0.000  0.000  1.002 -0.000
  0.000  0.000  0.000 -0.000  0.983
   spin  2
    eigenvalues:
  0.065  0.140  0.153  0.153  0.276
    eigenvectors:
  0.000  1.000  0.000  0.000  0.000
  0.000  0.000  0.312  0.688  0.000
  0.000  0.000  0.688  0.312  0.000
  1.000  0.000  0.000  0.000  0.000
  0.000  0.000  0.000  0.000  1.000
    occupations:
  0.140 -0.000 -0.000  0.000  0.000
 -0.000  0.153 -0.000  0.000  0.000
 -0.000 -0.000  0.153  0.000  0.000
  0.000  0.000  0.000  0.065 -0.000
  0.000  0.000  0.000 -0.000  0.276
atomic mag. moment =     4.178027
atom    6   Tr[ns(na)] (up, down, total) =   0.74061  4.96949  5.71010
   spin  1
    eigenvalues:
  0.068  0.116  0.152  0.152  0.253
    eigenvectors:
  0.000  1.000  0.000  0.000  0.000
  0.000  0.000  0.301  0.699  0.000
  0.000  0.000  0.699  0.301  0.000
  1.000  0.000  0.000  0.000  0.000
  0.000  0.000  0.000  0.000  1.000
    occupations:
  0.116 -0.000 -0.000  0.000  0.000
 -0.000  0.152 -0.000  0.000  0.000
 -0.000 -0.000  0.152  0.000  0.000
  0.000  0.000  0.000  0.068 -0.000
  0.000  0.000  0.000 -0.000  0.253
   spin  2
    eigenvalues:
  0.984  0.994  0.994  0.996  1.002
    eigenvectors:
  0.000  0.000  0.000  1.000  0.000
  0.000  0.332  0.668  0.000  0.000
  0.000  0.668  0.332  0.000  0.000
  0.000  0.000  0.000  0.000  1.000
  1.000  0.000  0.000  0.000  0.000
    occupations:
  0.996 -0.000 -0.000  0.000  0.000
 -0.000  0.994 -0.000  0.000  0.000
 -0.000 -0.000  0.994  0.000  0.000
  0.000  0.000  0.000  1.002 -0.000
  0.000  0.000  0.000 -0.000  0.984
atomic mag. moment =    -4.228873
atom    7   Tr[ns(na)] (up, down, total) =   0.74926  4.97026  5.71952
   spin  1
    eigenvalues:
  0.067  0.122  0.152  0.152  0.256
    eigenvectors:
  0.000  1.000  0.000  0.000  0.000
  0.000  0.000  0.313  0.687  0.000
  0.000  0.000  0.687  0.313  0.000
  1.000  0.000  0.000  0.000  0.000
  0.000  0.000  0.000  0.000  1.000
    occupations:
  0.122 -0.000 -0.000  0.000  0.000
 -0.000  0.152 -0.000  0.000  0.000
 -0.000 -0.000  0.152  0.000  0.000
  0.000  0.000  0.000  0.067 -0.000
  0.000  0.000  0.000 -0.000  0.256
   spin  2
    eigenvalues:
  0.984  0.993  0.993  0.998  1.002
    eigenvectors:
  0.000  0.000  0.000  1.000  0.000
  0.000  0.292  0.708  0.000  0.000
  0.000  0.708  0.292  0.000  0.000
  0.000  0.000  0.000  0.000  1.000
  1.000  0.000  0.000  0.000  0.000
    occupations:
  0.998 -0.000 -0.000  0.000  0.000
 -0.000  0.993 -0.000  0.000  0.000
 -0.000 -0.000  0.993  0.000  0.000
  0.000  0.000  0.000  1.002 -0.000
  0.000  0.000  0.000 -0.000  0.984
atomic mag. moment =    -4.220994
atom    8   Tr[ns(na)] (up, down, total) =   0.76351  4.96784  5.73135
   spin  1
    eigenvalues:
  0.067  0.134  0.150  0.150  0.263
    eigenvectors:
  0.000  1.000  0.000  0.000  0.000
  0.000  0.000  0.336  0.664  0.000
  0.000  0.000  0.664  0.336  0.000
  1.000  0.000  0.000  0.000  0.000
  0.000  0.000  0.000  0.000  1.000
    occupations:
  0.134 -0.000 -0.000  0.000  0.000
 -0.000  0.150 -0.000  0.000  0.000
 -0.000 -0.000  0.150  0.000  0.000
  0.000  0.000  0.000  0.067 -0.000
  0.000  0.000  0.000 -0.000  0.263
   spin  2
    eigenvalues:
  0.983  0.993  0.993  0.997  1.002
    eigenvectors:
  0.000  0.000  0.000  1.000  0.000
  0.000  0.288  0.712  0.000  0.000
  0.000  0.712  0.288  0.000  0.000
  0.000  0.000  0.000  0.000  1.000
  1.000  0.000  0.000  0.000  0.000
    occupations:
  0.997 -0.000 -0.000  0.000  0.000
 -0.000  0.993 -0.000  0.000  0.000
 -0.000 -0.000  0.993  0.000  0.000
  0.000  0.000  0.000  1.002 -0.000
  0.000  0.000  0.000 -0.000  0.983
atomic mag. moment =    -4.204336
N of occupied +U levels =   45.830953
 --- exit write_ns ---

     Number of k-points >= 100: set verbosity='high' to print the bands.

     the Fermi energy is    15.5555 ev

!    total energy              =  -14693.98555395 Ry
     Harris-Foulkes estimate   =  -14693.98555027 Ry
     estimated scf accuracy    <       0.00000057 Ry

     total all-electron energy =   -626921.581276 Ry

     The total energy is the sum of the following terms:

     one-electron contribution =    -698.60341047 Ry
     hartree contribution      =     651.65695298 Ry
     xc contribution           =    -738.08201929 Ry
     ewald contribution        =   -2207.56121140 Ry
     Hubbard energy            =       0.46264962 Ry
     one-center paw contrib.   =  -11701.85851538 Ry

     total magnetization       =     0.00 Bohr mag/cell
     absolute magnetization    =    37.06 Bohr mag/cell

     convergence has been achieved in  28 iterations

     Writing output data file mnau2.save/

     General routines

     Parallel routines

     Hubbard U routines

      54h

   This run was terminated on:   3:52:19  17May2019

   JOB DONE.