     Program PWSCF v.6.3MaX starts on 19May2019 at  5:17:20

     R & G space division:  proc/nbgrp/npool/nimage =      32
     Waiting for input...
     Reading input from standard input

     Current dimensions of program PWSCF are:
     Max number of different atomic species (ntypx) = 10
     Max number of k-points (npk) =  40000
     Max angular momentum in pseudopotentials (lmaxx) =  3
               file Mn.pbe-spn-kjpaw_psl.0.3.1.UPF: wavefunction(s)  3P 3D renormalized
               file Mn.pbe-spn-kjpaw_psl.0.3.1.UPF: wavefunction(s)  3P 3D renormalized
               file Au.pbe-dn-kjpaw_psl.0.1.UPF: wavefunction(s)  6S 6P 5D renormalized

     Found symmetry operation: I + (  0.0000  0.0000 -0.5000)
     This is a supercell, fractional translations are disabled

     bravais-lattice index     =            0
     lattice parameter (alat)  =       6.3684  a.u.
     unit-cell volume          =    2685.0513 (a.u.)^3
     number of atoms/cell      =           24
     number of atomic types    =            3
     number of electrons       =       296.00
     number of Kohn-Sham states=          178
     kinetic-energy cutoff     =      45.0000  Ry
     charge density cutoff     =     400.0000  Ry
     convergence threshold     =      1.0E-06
     mixing beta               =       0.1000
     number of iterations used =            8  plain     mixing
     Exchange-correlation      = SLA PW PBX PBC ( 1  4  3  4 0 0)

     celldm(1)=   6.368377  celldm(2)=   0.000000  celldm(3)=   0.000000
     celldm(4)=   0.000000  celldm(5)=   0.000000  celldm(6)=   0.000000

     crystal axes: (cart. coord. in units of alat)
               a(1) = (   1.000000   0.000000   0.000000 )
               a(2) = (   0.000000   1.000000   0.000000 )
               a(3) = (   0.000000   0.000000  10.396000 )

     reciprocal axes: (cart. coord. in units 2 pi/alat)
               b(1) = (  1.000000  0.000000  0.000000 )
               b(2) = (  0.000000  1.000000  0.000000 )
               b(3) = (  0.000000  0.000000  0.096191 )

     PseudoPot. # 1 for Mn read from file:
     ./pseudo/Mn.pbe-spn-kjpaw_psl.0.3.1.UPF
     MD5 check sum: 7b43a3fb0e93e198b8dd8488d8cf503e
     Pseudo is Projector augmented-wave + core cor, Zval = 15.0
     Generated using "atomic" code by A. Dal Corso v.5.0.99 svn rev. 10869
     Shape of augmentation charge: PSQ
     Using radial grid of 1187 points,  6 beta functions with:
                l(1) =   0
                l(2) =   0
                l(3) =   1
                l(4) =   1
                l(5) =   2
                l(6) =   2
     Q(r) pseudized with 0 coefficients

     PseudoPot. # 2 for Mn read from file:
     ./pseudo/Mn.pbe-spn-kjpaw_psl.0.3.1.UPF
     MD5 check sum: 7b43a3fb0e93e198b8dd8488d8cf503e
     Pseudo is Projector augmented-wave + core cor, Zval = 15.0
     Generated using "atomic" code by A. Dal Corso v.5.0.99 svn rev. 10869
     Shape of augmentation charge: PSQ
     Using radial grid of 1187 points,  6 beta functions with:
                l(1) =   0
                l(2) =   0
                l(3) =   1
                l(4) =   1
                l(5) =   2
                l(6) =   2
     Q(r) pseudized with 0 coefficients

     PseudoPot. # 3 for Au read from file:
     ./pseudo/Au.pbe-dn-kjpaw_psl.0.1.UPF
     MD5 check sum: be11e2e8e535ebe2b3ccfb4f88f554cb
     Pseudo is Projector augmented-wave + core cor, Zval = 11.0
     Generated using "atomic" code by A. Dal Corso v.5.0.2 svn rev. 9415
     Shape of augmentation charge: PSQ
     Using radial grid of 1279 points,  6 beta functions with:
                l(1) =   0
                l(2) =   0
                l(3) =   1
                l(4) =   1
                l(5) =   2
                l(6) =   2
     Q(r) pseudized with 0 coefficients

     atomic species   valence    mass     pseudopotential
        Mn1           15.00    54.93800     Mn( 1.00)
        Mn2           15.00    54.93800     Mn( 1.00)
        Au            11.00   196.96600     Au( 1.00)

     Starting magnetic structure
     atomic species   magnetization
        Mn1          0.800
        Mn2         -0.800
        Au           0.000

     Full LDA+U calculation (l_max = 2) with parameters (eV):
     U(  1) =   3.1200   J(  1) =   0.7000   B(  1) =   0.0803
     U(  2) =   3.1200   J(  2) =   0.7000   B(  2) =   0.0803

      8 Sym. Ops. (no inversion) found

   Cartesian axes

     site n.     atom                  positions (alat units)
         1           Mn1 tau(   1) = (   0.0000000   0.0000000   0.0000000  )
         2           Mn2 tau(   2) = (   0.0000000   0.0000000   2.5990000  )
         3           Mn1 tau(   3) = (   0.0000000   0.0000000   5.1980000  )
         4           Mn2 tau(   4) = (   0.0000000   0.0000000   7.7970000  )
         5           Mn1 tau(   5) = (   0.5000000   0.5000000   1.2995000  )
         6           Mn2 tau(   6) = (   0.5000000   0.5000000   3.8985000  )
         7           Mn1 tau(   7) = (   0.5000000   0.5000000   6.4975000  )
         8           Mn2 tau(   8) = (   0.5000000   0.5000000   9.0965000  )
         9           Au  tau(   9) = (   0.5000000   0.5000000   2.1831600  )
        10           Au  tau(  10) = (   0.5000000   0.5000000   4.7821600  )
        11           Au  tau(  11) = (   0.5000000   0.5000000   7.3811600  )
        12           Au  tau(  12) = (   0.5000000   0.5000000   9.9801600  )
        13           Au  tau(  13) = (   0.5000000   0.5000000   0.4158400  )
        14           Au  tau(  14) = (   0.5000000   0.5000000   3.0148400  )
        15           Au  tau(  15) = (   0.5000000   0.5000000   5.6138400  )
        16           Au  tau(  16) = (   0.5000000   0.5000000   8.2128400  )
        17           Au  tau(  17) = (   0.0000000   0.0000000   0.8836600  )
        18           Au  tau(  18) = (   0.0000000   0.0000000   3.4826600  )
        19           Au  tau(  19) = (   0.0000000   0.0000000   6.0816600  )
        20           Au  tau(  20) = (   0.0000000   0.0000000   8.6806600  )
        21           Au  tau(  21) = (   0.0000000   0.0000000   1.7153400  )
        22           Au  tau(  22) = (   0.0000000   0.0000000   4.3143400  )
        23           Au  tau(  23) = (   0.0000000   0.0000000   6.9133400  )
        24           Au  tau(  24) = (   0.0000000   0.0000000   9.5123400  )

     number of k points=   135 (tetrahedron method)

     Number of k-points >= 100: set verbosity='high' to print them.

     Check: negative/imaginary core charge=   -0.000006    0.000000

     Initial potential from superposition of free atoms

     starting charge  295.99426, renormalised to  296.00000
     Number of +U iterations with fixed ns =  0
     Starting occupations:
 --- enter write_ns ---
 LDA+U parameters:
U(  1) =   3.1200   J(  1) =   0.7000   B(  1) =   0.0803
U(  2) =   3.1200   J(  2) =   0.7000   B(  2) =   0.0803
atom    1   Tr[ns(na)] (up, down, total) =   5.00000  0.00000  5.00000
   spin  1
    eigenvalues:
  1.000  1.000  1.000  1.000  1.000
    eigenvectors:
  1.000  0.000  0.000  0.000  0.000
  0.000  1.000  0.000  0.000  0.000
  0.000  0.000  1.000  0.000  0.000
  0.000  0.000  0.000  1.000  0.000
  0.000  0.000  0.000  0.000  1.000
    occupations:
  1.000  0.000  0.000  0.000  0.000
  0.000  1.000  0.000  0.000  0.000
  0.000  0.000  1.000  0.000  0.000
  0.000  0.000  0.000  1.000  0.000
  0.000  0.000  0.000  0.000  1.000
   spin  2
    eigenvalues:
  0.000  0.000  0.000  0.000  0.000
    eigenvectors:
  1.000  0.000  0.000  0.000  0.000
  0.000  1.000  0.000  0.000  0.000
  0.000  0.000  1.000  0.000  0.000
  0.000  0.000  0.000  1.000  0.000
  0.000  0.000  0.000  0.000  1.000
    occupations:
  0.000  0.000  0.000  0.000  0.000
  0.000  0.000  0.000  0.000  0.000
  0.000  0.000  0.000  0.000  0.000
  0.000  0.000  0.000  0.000  0.000
  0.000  0.000  0.000  0.000  0.000
atomic mag. moment =     5.000000
atom    2   Tr[ns(na)] (up, down, total) =   0.00000  5.00000  5.00000
   spin  1
    eigenvalues:
  0.000  0.000  0.000  0.000  0.000
    eigenvectors:
  1.000  0.000  0.000  0.000  0.000
  0.000  1.000  0.000  0.000  0.000
  0.000  0.000  1.000  0.000  0.000
  0.000  0.000  0.000  1.000  0.000
  0.000  0.000  0.000  0.000  1.000
    occupations:
  0.000  0.000  0.000  0.000  0.000
  0.000  0.000  0.000  0.000  0.000
  0.000  0.000  0.000  0.000  0.000
  0.000  0.000  0.000  0.000  0.000
  0.000  0.000  0.000  0.000  0.000
   spin  2
    eigenvalues:
  1.000  1.000  1.000  1.000  1.000
    eigenvectors:
  1.000  0.000  0.000  0.000  0.000
  0.000  1.000  0.000  0.000  0.000
  0.000  0.000  1.000  0.000  0.000
  0.000  0.000  0.000  1.000  0.000
  0.000  0.000  0.000  0.000  1.000
    occupations:
  1.000  0.000  0.000  0.000  0.000
  0.000  1.000  0.000  0.000  0.000
  0.000  0.000  1.000  0.000  0.000
  0.000  0.000  0.000  1.000  0.000
  0.000  0.000  0.000  0.000  1.000
atomic mag. moment =    -5.000000
atom    3   Tr[ns(na)] (up, down, total) =   5.00000  0.00000  5.00000
   spin  1
    eigenvalues:
  1.000  1.000  1.000  1.000  1.000
    eigenvectors:
  1.000  0.000  0.000  0.000  0.000
  0.000  1.000  0.000  0.000  0.000
  0.000  0.000  1.000  0.000  0.000
  0.000  0.000  0.000  1.000  0.000
  0.000  0.000  0.000  0.000  1.000
    occupations:
  1.000  0.000  0.000  0.000  0.000
  0.000  1.000  0.000  0.000  0.000
  0.000  0.000  1.000  0.000  0.000
  0.000  0.000  0.000  1.000  0.000
  0.000  0.000  0.000  0.000  1.000
   spin  2
    eigenvalues:
  0.000  0.000  0.000  0.000  0.000
    eigenvectors:
  1.000  0.000  0.000  0.000  0.000
  0.000  1.000  0.000  0.000  0.000
  0.000  0.000  1.000  0.000  0.000
  0.000  0.000  0.000  1.000  0.000
  0.000  0.000  0.000  0.000  1.000
    occupations:
  0.000  0.000  0.000  0.000  0.000
  0.000  0.000  0.000  0.000  0.000
  0.000  0.000  0.000  0.000  0.000
  0.000  0.000  0.000  0.000  0.000
  0.000  0.000  0.000  0.000  0.000
atomic mag. moment =     5.000000
atom    4   Tr[ns(na)] (up, down, total) =   0.00000  5.00000  5.00000
   spin  1
    eigenvalues:
  0.000  0.000  0.000  0.000  0.000
    eigenvectors:
  1.000  0.000  0.000  0.000  0.000
  0.000  1.000  0.000  0.000  0.000
  0.000  0.000  1.000  0.000  0.000
  0.000  0.000  0.000  1.000  0.000
  0.000  0.000  0.000  0.000  1.000
    occupations:
  0.000  0.000  0.000  0.000  0.000
  0.000  0.000  0.000  0.000  0.000
  0.000  0.000  0.000  0.000  0.000
  0.000  0.000  0.000  0.000  0.000
  0.000  0.000  0.000  0.000  0.000
   spin  2
    eigenvalues:
  1.000  1.000  1.000  1.000  1.000
    eigenvectors:
  1.000  0.000  0.000  0.000  0.000
  0.000  1.000  0.000  0.000  0.000
  0.000  0.000  1.000  0.000  0.000
  0.000  0.000  0.000  1.000  0.000
  0.000  0.000  0.000  0.000  1.000
    occupations:
  1.000  0.000  0.000  0.000  0.000
  0.000  1.000  0.000  0.000  0.000
  0.000  0.000  1.000  0.000  0.000
  0.000  0.000  0.000  1.000  0.000
  0.000  0.000  0.000  0.000  1.000
atomic mag. moment =    -5.000000
atom    5   Tr[ns(na)] (up, down, total) =   5.00000  0.00000  5.00000
   spin  1
    eigenvalues:
  1.000  1.000  1.000  1.000  1.000
    eigenvectors:
  1.000  0.000  0.000  0.000  0.000
[...]
  0.000  0.000  0.000 -0.000  1.003
atomic mag. moment =    -4.593073
atom    5   Tr[ns(na)] (up, down, total) =   5.01744  0.42426  5.44170
   spin  1
    eigenvalues:
  1.003  1.003  1.003  1.004  1.004
    eigenvectors:
  0.000  0.000  0.000  1.000  0.000
  0.000  0.277  0.723  0.000  0.000
  0.000  0.723  0.277  0.000  0.000
  0.000  0.000  0.000  0.000  1.000
  1.000  0.000  0.000  0.000  0.000
    occupations:
  1.004 -0.000 -0.000  0.000  0.000
 -0.000  1.003 -0.000  0.000  0.000
 -0.000 -0.000  1.003  0.000  0.000
  0.000  0.000  0.000  1.004 -0.000
  0.000  0.000  0.000 -0.000  1.003
   spin  2
    eigenvalues:
  0.055  0.076  0.085  0.085  0.124
    eigenvectors:
  0.000  1.000  0.000  0.000  0.000
  0.000  0.000  0.339  0.661  0.000
  0.000  0.000  0.661  0.339  0.000
  1.000  0.000  0.000  0.000  0.000
  0.000  0.000  0.000  0.000  1.000
    occupations:
  0.076 -0.000 -0.000  0.000  0.000
 -0.000  0.085 -0.000  0.000  0.000
 -0.000 -0.000  0.085  0.000  0.000
  0.000  0.000  0.000  0.055 -0.000
  0.000  0.000  0.000 -0.000  0.124
atomic mag. moment =     4.593174
atom    6   Tr[ns(na)] (up, down, total) =   0.42379  5.01755  5.44134
   spin  1
    eigenvalues:
  0.055  0.076  0.085  0.085  0.124
    eigenvectors:
  0.000  1.000  0.000  0.000  0.000
  0.000  0.000  0.291  0.709  0.000
  0.000  0.000  0.709  0.291  0.000
  1.000  0.000  0.000  0.000  0.000
  0.000  0.000  0.000  0.000  1.000
    occupations:
  0.076 -0.000 -0.000  0.000  0.000
 -0.000  0.085 -0.000  0.000  0.000
 -0.000 -0.000  0.085  0.000  0.000
  0.000  0.000  0.000  0.055 -0.000
  0.000  0.000  0.000 -0.000  0.124
   spin  2
    eigenvalues:
  1.003  1.003  1.003  1.004  1.004
    eigenvectors:
  0.000  0.000  0.000  1.000  0.000
  0.000  0.324  0.676  0.000  0.000
  0.000  0.676  0.324  0.000  0.000
  0.000  0.000  0.000  0.000  1.000
  1.000  0.000  0.000  0.000  0.000
    occupations:
  1.004 -0.000 -0.000  0.000  0.000
 -0.000  1.003 -0.000  0.000  0.000
 -0.000 -0.000  1.003  0.000  0.000
  0.000  0.000  0.000  1.004 -0.000
  0.000  0.000  0.000 -0.000  1.003
atomic mag. moment =    -4.593755
atom    7   Tr[ns(na)] (up, down, total) =   5.01744  0.42362  5.44106
   spin  1
    eigenvalues:
  1.003  1.003  1.003  1.004  1.004
    eigenvectors:
  0.000  0.000  0.000  1.000  0.000
  0.000  0.359  0.641  0.000  0.000
  0.000  0.641  0.359  0.000  0.000
  0.000  0.000  0.000  0.000  1.000
  1.000  0.000  0.000  0.000  0.000
    occupations:
  1.004 -0.000 -0.000  0.000  0.000
 -0.000  1.003 -0.000  0.000  0.000
 -0.000 -0.000  1.003  0.000  0.000
  0.000  0.000  0.000  1.004 -0.000
  0.000  0.000  0.000 -0.000  1.003
   spin  2
    eigenvalues:
  0.055  0.076  0.085  0.085  0.124
    eigenvectors:
  0.000  1.000  0.000  0.000  0.000
  0.000  0.000  0.391  0.609  0.000
  0.000  0.000  0.609  0.391  0.000
  1.000  0.000  0.000  0.000  0.000
  0.000  0.000  0.000  0.000  1.000
    occupations:
  0.076 -0.000 -0.000  0.000  0.000
 -0.000  0.085 -0.000  0.000  0.000
 -0.000 -0.000  0.085  0.000  0.000
  0.000  0.000  0.000  0.055 -0.000
  0.000  0.000  0.000 -0.000  0.124
atomic mag. moment =     4.593825
atom    8   Tr[ns(na)] (up, down, total) =   0.42444  5.01740  5.44184
   spin  1
    eigenvalues:
  0.055  0.076  0.085  0.085  0.124
    eigenvectors:
  0.000  1.000  0.000  0.000  0.000
  0.000  0.000  0.351  0.649  0.000
  0.000  0.000  0.649  0.351  0.000
  1.000  0.000  0.000  0.000  0.000
  0.000  0.000  0.000  0.000  1.000
    occupations:
  0.076 -0.000 -0.000  0.000  0.000
 -0.000  0.085 -0.000  0.000  0.000
 -0.000 -0.000  0.085  0.000  0.000
  0.000  0.000  0.000  0.055 -0.000
  0.000  0.000  0.000 -0.000  0.124
   spin  2
    eigenvalues:
  1.003  1.003  1.003  1.004  1.004
    eigenvectors:
  0.000  0.000  0.000  1.000  0.000
  0.000  0.279  0.721  0.000  0.000
  0.000  0.721  0.279  0.000  0.000
  0.000  0.000  0.000  0.000  1.000
  1.000  0.000  0.000  0.000  0.000
    occupations:
  1.004 -0.000 -0.000  0.000  0.000
 -0.000  1.003 -0.000  0.000  0.000
 -0.000 -0.000  1.003  0.000  0.000
  0.000  0.000  0.000  1.004 -0.000
  0.000  0.000  0.000 -0.000  1.003
atomic mag. moment =    -4.592957
N of occupied +U levels =   43.531433
 --- exit write_ns ---

     total energy              =  -14687.24062250 Ry
     Harris-Foulkes estimate   =  -14685.78344765 Ry
     estimated scf accuracy    <      11.62803936 Ry

     total magnetization       =    -0.00 Bohr mag/cell
     absolute magnetization    =    41.37 Bohr mag/cell

     iteration #  2     ecut=    45.00 Ry     beta= 0.10
     Davidson diagonalization with overlap
     ethr =  3.93E-03,  avg # of iterations =  1.0

[...]

     iteration # 12     ecut=    45.00 Ry     beta= 0.10
     Davidson diagonalization with overlap
     c_bands:  1 eigenvalues not converged
     ethr =  2.40E-05,  avg # of iterations =  1.6

[...]

     iteration # 15     ecut=    45.00 Ry     beta= 0.10
     Davidson diagonalization with overlap
     c_bands:  1 eigenvalues not converged
     ethr =  2.06E-06,  avg # of iterations =  4.1

[...]

     total energy              =  -14693.99135689 Ry
     Harris-Foulkes estimate   =  -14693.99135689 Ry
     estimated scf accuracy    <       0.00000259 Ry

[...]

     iteration # 56     ecut=    45.00 Ry     beta= 0.10
     Davidson diagonalization with overlap
     ethr =  8.76E-10,  avg # of iterations =  1.0

     Magnetic moment per site:
     atom:    1    charge:   13.5435    magn:    4.2027    constr:    0.0000
     atom:    2    charge:   13.5435    magn:   -4.2025    constr:    0.0000
     atom:    3    charge:   13.5435    magn:    4.2023    constr:    0.0000
     atom:    4    charge:   13.5435    magn:   -4.2027    constr:    0.0000
     atom:    5    charge:   13.5437    magn:    4.2029    constr:    0.0000
     atom:    6    charge:   13.5437    magn:   -4.2025    constr:    0.0000
     atom:    7    charge:   13.5436    magn:    4.2024    constr:    0.0000
     atom:    8    charge:   13.5437    magn:   -4.2025    constr:    0.0000
     atom:    9    charge:    9.0892    magn:   -0.0459    constr:    0.0000
     atom:   10    charge:    9.0892    magn:    0.0458    constr:    0.0000
     atom:   11    charge:    9.0892    magn:   -0.0460    constr:    0.0000
     atom:   12    charge:    9.0892    magn:    0.0461    constr:    0.0000
     atom:   13    charge:    9.0890    magn:    0.0391    constr:    0.0000
     atom:   14    charge:    9.0889    magn:   -0.0389    constr:    0.0000
     atom:   15    charge:    9.0889    magn:    0.0386    constr:    0.0000
     atom:   16    charge:    9.0889    magn:   -0.0388    constr:    0.0000
     atom:   17    charge:    9.0892    magn:    0.0391    constr:    0.0000
     atom:   18    charge:    9.0892    magn:   -0.0389    constr:    0.0000
     atom:   19    charge:    9.0892    magn:    0.0386    constr:    0.0000
     atom:   20    charge:    9.0892    magn:   -0.0388    constr:    0.0000
     atom:   21    charge:    9.0895    magn:    0.0461    constr:    0.0000
     atom:   22    charge:    9.0895    magn:   -0.0461    constr:    0.0000
     atom:   23    charge:    9.0894    magn:    0.0458    constr:    0.0000
     atom:   24    charge:    9.0894    magn:   -0.0458    constr:    0.0000

     End of self-consistent calculation
 --- enter write_ns ---
 LDA+U parameters:
U(  1) =   3.1200   J(  1) =   0.7000   B(  1) =   0.0803
U(  2) =   3.1200   J(  2) =   0.7000   B(  2) =   0.0803
atom    1   Tr[ns(na)] (up, down, total) =   4.96808  0.76454  5.73262
   spin  1
    eigenvalues:
  0.983  0.993  0.993  0.996  1.002
    eigenvectors:
  0.000  0.000  0.000  1.000  0.000
  0.000  0.386  0.614  0.000  0.000
  0.000  0.614  0.386  0.000  0.000
  0.000  0.000  0.000  0.000  1.000
  1.000  0.000  0.000  0.000  0.000
    occupations:
  0.996 -0.000 -0.000  0.000  0.000
 -0.000  0.993 -0.000  0.000  0.000
 -0.000 -0.000  0.993  0.000  0.000
  0.000  0.000  0.000  1.002 -0.000
  0.000  0.000  0.000 -0.000  0.983
   spin  2
    eigenvalues:
  0.066  0.135  0.149  0.149  0.265
    eigenvectors:
  0.000  1.000  0.000  0.000  0.000
  0.000  0.000  0.311  0.689  0.000
  0.000  0.000  0.689  0.311  0.000
  1.000  0.000  0.000  0.000  0.000
  0.000  0.000  0.000  0.000  1.000
    occupations:
  0.135 -0.000 -0.000  0.000  0.000
 -0.000  0.149 -0.000  0.000  0.000
 -0.000 -0.000  0.149  0.000  0.000
  0.000  0.000  0.000  0.066 -0.000
  0.000  0.000  0.000 -0.000  0.265
atomic mag. moment =     4.203545
atom    2   Tr[ns(na)] (up, down, total) =   0.76466  4.96806  5.73272
   spin  1
    eigenvalues:
  0.066  0.135  0.149  0.149  0.265
    eigenvectors:
  0.000  1.000  0.000  0.000  0.000
  0.000  0.000  0.268  0.732  0.000
  0.000  0.000  0.732  0.268  0.000
  1.000  0.000  0.000  0.000  0.000
  0.000  0.000  0.000  0.000  1.000
    occupations:
  0.135 -0.000 -0.000  0.000  0.000
 -0.000  0.149 -0.000  0.000  0.000
 -0.000 -0.000  0.149  0.000  0.000
  0.000  0.000  0.000  0.066 -0.000
  0.000  0.000  0.000 -0.000  0.265
   spin  2
    eigenvalues:
  0.983  0.993  0.993  0.996  1.002
    eigenvectors:
  0.000  0.000  0.000  1.000  0.000
  0.000  0.340  0.660  0.000  0.000
  0.000  0.660  0.340  0.000  0.000
  0.000  0.000  0.000  0.000  1.000
  1.000  0.000  0.000  0.000  0.000
    occupations:
  0.996 -0.000 -0.000  0.000  0.000
 -0.000  0.993 -0.000  0.000  0.000
 -0.000 -0.000  0.993  0.000  0.000
  0.000  0.000  0.000  1.002 -0.000
  0.000  0.000  0.000 -0.000  0.983
atomic mag. moment =    -4.203396
atom    3   Tr[ns(na)] (up, down, total) =   4.96804  0.76481  5.73284
   spin  1
    eigenvalues:
  0.983  0.993  0.993  0.996  1.002
    eigenvectors:
  0.000  0.000  0.000  1.000  0.000
  0.000  0.419  0.581  0.000  0.000
  0.000  0.581  0.419  0.000  0.000
  0.000  0.000  0.000  0.000  1.000
  1.000  0.000  0.000  0.000  0.000
    occupations:
  0.996 -0.000 -0.000  0.000  0.000
 -0.000  0.993 -0.000  0.000  0.000
 -0.000 -0.000  0.993  0.000  0.000
  0.000  0.000  0.000  1.002 -0.000
  0.000  0.000  0.000 -0.000  0.983
   spin  2
    eigenvalues:
  0.066  0.135  0.149  0.149  0.265
    eigenvectors:
  0.000  1.000  0.000  0.000  0.000
  0.000  0.000  0.394  0.606  0.000
  0.000  0.000  0.606  0.394  0.000
  1.000  0.000  0.000  0.000  0.000
  0.000  0.000  0.000  0.000  1.000
    occupations:
  0.135 -0.000 -0.000  0.000  0.000
 -0.000  0.149 -0.000  0.000  0.000
 -0.000 -0.000  0.149  0.000  0.000
  0.000  0.000  0.000  0.066 -0.000
  0.000  0.000  0.000 -0.000  0.265
atomic mag. moment =     4.203227
atom    4   Tr[ns(na)] (up, down, total) =   0.76450  4.96808  5.73258
   spin  1
    eigenvalues:
  0.066  0.135  0.149  0.149  0.265
    eigenvectors:
  0.000  1.000  0.000  0.000  0.000
  0.000  0.000  0.396  0.604  0.000
  0.000  0.000  0.604  0.396  0.000
  1.000  0.000  0.000  0.000  0.000
  0.000  0.000  0.000  0.000  1.000
    occupations:
  0.135 -0.000 -0.000  0.000  0.000
 -0.000  0.149 -0.000  0.000  0.000
 -0.000 -0.000  0.149  0.000  0.000
  0.000  0.000  0.000  0.066 -0.000
  0.000  0.000  0.000 -0.000  0.265
   spin  2
    eigenvalues:
  0.984  0.993  0.993  0.996  1.002
    eigenvectors:
  0.000  0.000  0.000  1.000  0.000
  0.000  0.310  0.690  0.000  0.000
  0.000  0.690  0.310  0.000  0.000
  0.000  0.000  0.000  0.000  1.000
  1.000  0.000  0.000  0.000  0.000
    occupations:
  0.996 -0.000 -0.000  0.000  0.000
 -0.000  0.993 -0.000  0.000  0.000
 -0.000 -0.000  0.993  0.000  0.000
  0.000  0.000  0.000  1.002 -0.000
  0.000  0.000  0.000 -0.000  0.984
atomic mag. moment =    -4.203574
atom    5   Tr[ns(na)] (up, down, total) =   4.96811  0.76446  5.73256
   spin  1
    eigenvalues:
  0.984  0.993  0.993  0.996  1.002
    eigenvectors:
  0.000  0.000  0.000  1.000  0.000
  0.000  0.303  0.697  0.000  0.000
  0.000  0.697  0.303  0.000  0.000
  0.000  0.000  0.000  0.000  1.000
  1.000  0.000  0.000  0.000  0.000
    occupations:
  0.996 -0.000 -0.000  0.000  0.000
 -0.000  0.993 -0.000  0.000  0.000
 -0.000 -0.000  0.993  0.000  0.000
  0.000  0.000  0.000  1.002 -0.000
  0.000  0.000  0.000 -0.000  0.984
   spin  2
    eigenvalues:
  0.066  0.135  0.149  0.149  0.265
    eigenvectors:
  0.000  1.000  0.000  0.000  0.000
  0.000  0.000  0.357  0.643  0.000
  0.000  0.000  0.643  0.357  0.000
  1.000  0.000  0.000  0.000  0.000
  0.000  0.000  0.000  0.000  1.000
    occupations:
  0.135 -0.000 -0.000  0.000  0.000
 -0.000  0.149 -0.000  0.000  0.000
 -0.000 -0.000  0.149  0.000  0.000
  0.000  0.000  0.000  0.066 -0.000
  0.000  0.000  0.000 -0.000  0.265
atomic mag. moment =     4.203653
atom    6   Tr[ns(na)] (up, down, total) =   0.76464  4.96807  5.73271
   spin  1
    eigenvalues:
  0.066  0.135  0.149  0.149  0.266
    eigenvectors:
  0.000  1.000  0.000  0.000  0.000
  0.000  0.000  0.373  0.627  0.000
  0.000  0.000  0.627  0.373  0.000
  1.000  0.000  0.000  0.000  0.000
  0.000  0.000  0.000  0.000  1.000
    occupations:
  0.135 -0.000 -0.000  0.000  0.000
 -0.000  0.149 -0.000  0.000  0.000
 -0.000 -0.000  0.149  0.000  0.000
  0.000  0.000  0.000  0.066 -0.000
  0.000  0.000  0.000 -0.000  0.266
   spin  2
    eigenvalues:
  0.983  0.993  0.993  0.996  1.002
    eigenvectors:
  0.000  0.000  0.000  1.000  0.000
  0.000  0.264  0.736  0.000  0.000
  0.000  0.736  0.264  0.000  0.000
  0.000  0.000  0.000  0.000  1.000
  1.000  0.000  0.000  0.000  0.000
    occupations:
  0.996 -0.000 -0.000  0.000  0.000
 -0.000  0.993 -0.000  0.000  0.000
 -0.000 -0.000  0.993  0.000  0.000
  0.000  0.000  0.000  1.002 -0.000
  0.000  0.000  0.000 -0.000  0.983
atomic mag. moment =    -4.203434
atom    7   Tr[ns(na)] (up, down, total) =   4.96804  0.76464  5.73268
   spin  1
    eigenvalues:
  0.984  0.993  0.993  0.996  1.002
    eigenvectors:
  0.000  0.000  0.000  1.000  0.000
  0.000  0.278  0.722  0.000  0.000
  0.000  0.722  0.278  0.000  0.000
  0.000  0.000  0.000  0.000  1.000
  1.000  0.000  0.000  0.000  0.000
    occupations:
  0.996 -0.000 -0.000  0.000  0.000
 -0.000  0.993 -0.000  0.000  0.000
 -0.000 -0.000  0.993  0.000  0.000
  0.000  0.000  0.000  1.002 -0.000
  0.000  0.000  0.000 -0.000  0.984
   spin  2
    eigenvalues:
  0.066  0.135  0.149  0.149  0.265
    eigenvectors:
  0.000  1.000  0.000  0.000  0.000
  0.000  0.000  0.340  0.660  0.000
  0.000  0.000  0.660  0.340  0.000
  1.000  0.000  0.000  0.000  0.000
  0.000  0.000  0.000  0.000  1.000
    occupations:
  0.135 -0.000 -0.000  0.000  0.000
 -0.000  0.149 -0.000  0.000  0.000
 -0.000 -0.000  0.149  0.000  0.000
  0.000  0.000  0.000  0.066 -0.000
  0.000  0.000  0.000 -0.000  0.265
atomic mag. moment =     4.203406
atom    8   Tr[ns(na)] (up, down, total) =   0.76470  4.96806  5.73276
   spin  1
    eigenvalues:
  0.066  0.135  0.149  0.149  0.265
    eigenvectors:
  0.000  1.000  0.000  0.000  0.000
  0.000  0.000  0.310  0.690  0.000
  0.000  0.000  0.690  0.310  0.000
  1.000  0.000  0.000  0.000  0.000
  0.000  0.000  0.000  0.000  1.000
    occupations:
  0.135 -0.000 -0.000  0.000  0.000
 -0.000  0.149 -0.000  0.000  0.000
 -0.000 -0.000  0.149  0.000  0.000
  0.000  0.000  0.000  0.066 -0.000
  0.000  0.000  0.000 -0.000  0.265
   spin  2
    eigenvalues:
  0.983  0.993  0.993  0.996  1.002
    eigenvectors:
  0.000  0.000  0.000  1.000  0.000
  0.000  0.239  0.761  0.000  0.000
  0.000  0.761  0.239  0.000  0.000
  0.000  0.000  0.000  0.000  1.000
  1.000  0.000  0.000  0.000  0.000
    occupations:
  0.996 -0.000 -0.000  0.000  0.000
 -0.000  0.993 -0.000  0.000  0.000
 -0.000 -0.000  0.993  0.000  0.000
  0.000  0.000  0.000  1.002 -0.000
  0.000  0.000  0.000 -0.000  0.983
atomic mag. moment =    -4.203356
N of occupied +U levels =   45.861478
 --- exit write_ns ---

     Number of k-points >= 100: set verbosity='high' to print the bands.

     the Fermi energy is    15.5522 ev

!    total energy              =  -14693.99135665 Ry
     Harris-Foulkes estimate   =  -14693.99135690 Ry
     estimated scf accuracy    <       0.00000087 Ry

     total all-electron energy =   -626921.587079 Ry

     The total energy is the sum of the following terms:

     one-electron contribution =    -698.63899279 Ry
     hartree contribution      =     651.67258134 Ry
     xc contribution           =    -738.07375436 Ry
     ewald contribution        =   -2207.56121140 Ry
     Hubbard energy            =       0.46460813 Ry
     one-center paw contrib.   =  -11701.85458757 Ry

     total magnetization       =     0.00 Bohr mag/cell
     absolute magnetization    =    37.09 Bohr mag/cell

     convergence has been achieved in  56 iterations

     Writing output data file mnau2.save/

     General routines

     Parallel routines

     Hubbard U routines

      43h

   This run was terminated on:  11: 0:34  19May2019

   JOB DONE.