     Program PWSCF v.6.3MaX starts on 16May2019 at  6:30:57

     R & G space division:  proc/nbgrp/npool/nimage =      32
     Waiting for input...
     Reading input from standard input

     Current dimensions of program PWSCF are:
     Max number of different atomic species (ntypx) = 10
     Max number of k-points (npk) =  40000
     Max angular momentum in pseudopotentials (lmaxx) =  3
               file Mn.pbe-spn-kjpaw_psl.0.3.1.UPF: wavefunction(s)  3P 3D renormalized
               file Mn.pbe-spn-kjpaw_psl.0.3.1.UPF: wavefunction(s)  3P 3D renormalized
               file Au.pbe-dn-kjpaw_psl.0.1.UPF: wavefunction(s)  6S 6P 5D renormalized

     bravais-lattice index     =            0
     lattice parameter (alat)  =       6.3684  a.u.
     unit-cell volume          =    2685.0513 (a.u.)^3
     number of atoms/cell      =           24
     number of atomic types    =            3
     number of electrons       =       296.00
     number of Kohn-Sham states=          178
     kinetic-energy cutoff     =      45.0000  Ry
     charge density cutoff     =     400.0000  Ry
     convergence threshold     =      1.0E-06
     mixing beta               =       0.1000
     number of iterations used =            8  plain     mixing
     Exchange-correlation      = SLA PW PBX PBC ( 1  4  3  4 0 0)

     celldm(1)=   6.368377  celldm(2)=   0.000000  celldm(3)=   0.000000
     celldm(4)=   0.000000  celldm(5)=   0.000000  celldm(6)=   0.000000

     crystal axes: (cart. coord. in units of alat)
               a(1) = (   1.000000   0.000000   0.000000 )
               a(2) = (   0.000000   1.000000   0.000000 )
               a(3) = (   0.000000   0.000000  10.396000 )

     reciprocal axes: (cart. coord. in units 2 pi/alat)
               b(1) = (  1.000000  0.000000  0.000000 )
               b(2) = (  0.000000  1.000000  0.000000 )
               b(3) = (  0.000000  0.000000  0.096191 )

     PseudoPot. # 1 for Mn read from file:
     ./pseudo/Mn.pbe-spn-kjpaw_psl.0.3.1.UPF
     MD5 check sum: 7b43a3fb0e93e198b8dd8488d8cf503e
     Pseudo is Projector augmented-wave + core cor, Zval = 15.0
     Generated using "atomic" code by A. Dal Corso v.5.0.99 svn rev. 10869
     Shape of augmentation charge: PSQ
     Using radial grid of 1187 points,  6 beta functions with:
                l(1) =   0
                l(2) =   0
                l(3) =   1
                l(4) =   1
                l(5) =   2
                l(6) =   2
     Q(r) pseudized with 0 coefficients

     PseudoPot. # 2 for Mn read from file:
     ./pseudo/Mn.pbe-spn-kjpaw_psl.0.3.1.UPF
     MD5 check sum: 7b43a3fb0e93e198b8dd8488d8cf503e
     Pseudo is Projector augmented-wave + core cor, Zval = 15.0
     Generated using "atomic" code by A. Dal Corso v.5.0.99 svn rev. 10869
     Shape of augmentation charge: PSQ
     Using radial grid of 1187 points,  6 beta functions with:
                l(1) =   0
                l(2) =   0
                l(3) =   1
                l(4) =   1
                l(5) =   2
                l(6) =   2
     Q(r) pseudized with 0 coefficients

     PseudoPot. # 3 for Au read from file:
     ./pseudo/Au.pbe-dn-kjpaw_psl.0.1.UPF
     MD5 check sum: be11e2e8e535ebe2b3ccfb4f88f554cb
     Pseudo is Projector augmented-wave + core cor, Zval = 11.0
     Generated using "atomic" code by A. Dal Corso v.5.0.2 svn rev. 9415
     Shape of augmentation charge: PSQ
     Using radial grid of 1279 points,  6 beta functions with:
                l(1) =   0
                l(2) =   0
                l(3) =   1
                l(4) =   1
                l(5) =   2
                l(6) =   2
     Q(r) pseudized with 0 coefficients

     atomic species   valence    mass     pseudopotential
        Mn1           15.00    54.93800     Mn( 1.00)
        Mn2           15.00    54.93800     Mn( 1.00)
        Au            11.00   196.96600     Au( 1.00)

     Starting magnetic structure
     atomic species   magnetization
        Mn1          0.800
        Mn2         -0.800
        Au           0.000

     Full LDA+U calculation (l_max = 2) with parameters (eV):
     U(  1) =   3.1200   J(  1) =   0.7000   B(  1) =   0.0803
     U(  2) =   3.1200   J(  2) =   0.7000   B(  2) =   0.0803

     16 Sym. Ops., with inversion, found

   Cartesian axes

     site n.     atom                  positions (alat units)
         1           Mn1 tau(   1) = (   0.0000000   0.0000000   0.0000000  )
         2           Mn1 tau(   2) = (   0.0000000   0.0000000   2.5990000  )
         3           Mn1 tau(   3) = (   0.0000000   0.0000000   5.1980000  )
         4           Mn1 tau(   4) = (   0.0000000   0.0000000   7.7970000  )
         5           Mn2 tau(   5) = (   0.5000000   0.5000000   1.2995000  )
         6           Mn1 tau(   6) = (   0.5000000   0.5000000   3.8985000  )
         7           Mn1 tau(   7) = (   0.5000000   0.5000000   6.4975000  )
         8           Mn2 tau(   8) = (   0.5000000   0.5000000   9.0965000  )
         9           Au  tau(   9) = (   0.5000000   0.5000000   2.1831600  )
        10           Au  tau(  10) = (   0.5000000   0.5000000   4.7821600  )
        11           Au  tau(  11) = (   0.5000000   0.5000000   7.3811600  )
        12           Au  tau(  12) = (   0.5000000   0.5000000   9.9801600  )
        13           Au  tau(  13) = (   0.5000000   0.5000000   0.4158400  )
        14           Au  tau(  14) = (   0.5000000   0.5000000   3.0148400  )
        15           Au  tau(  15) = (   0.5000000   0.5000000   5.6138400  )
        16           Au  tau(  16) = (   0.5000000   0.5000000   8.2128400  )
        17           Au  tau(  17) = (   0.0000000   0.0000000   0.8836600  )
        18           Au  tau(  18) = (   0.0000000   0.0000000   3.4826600  )
        19           Au  tau(  19) = (   0.0000000   0.0000000   6.0816600  )
        20           Au  tau(  20) = (   0.0000000   0.0000000   8.6806600  )
        21           Au  tau(  21) = (   0.0000000   0.0000000   1.7153400  )
        22           Au  tau(  22) = (   0.0000000   0.0000000   4.3143400  )
        23           Au  tau(  23) = (   0.0000000   0.0000000   6.9133400  )
        24           Au  tau(  24) = (   0.0000000   0.0000000   9.5123400  )

     number of k points=   135 (tetrahedron method)

     Number of k-points >= 100: set verbosity='high' to print them.

     Check: negative/imaginary core charge=   -0.000006    0.000000

     Initial potential from superposition of free atoms

     starting charge  295.99426, renormalised to  296.00000
     Number of +U iterations with fixed ns =  0
     Starting occupations:
 --- enter write_ns ---
 LDA+U parameters:
U(  1) =   3.1200   J(  1) =   0.7000   B(  1) =   0.0803
U(  2) =   3.1200   J(  2) =   0.7000   B(  2) =   0.0803
atom    1   Tr[ns(na)] (up, down, total) =   5.00000  0.00000  5.00000
   spin  1
    eigenvalues:
  1.000  1.000  1.000  1.000  1.000
    eigenvectors:
  1.000  0.000  0.000  0.000  0.000
  0.000  1.000  0.000  0.000  0.000
  0.000  0.000  1.000  0.000  0.000
  0.000  0.000  0.000  1.000  0.000
  0.000  0.000  0.000  0.000  1.000
    occupations:
  1.000  0.000  0.000  0.000  0.000
  0.000  1.000  0.000  0.000  0.000
  0.000  0.000  1.000  0.000  0.000
  0.000  0.000  0.000  1.000  0.000
  0.000  0.000  0.000  0.000  1.000
   spin  2
    eigenvalues:
  0.000  0.000  0.000  0.000  0.000
    eigenvectors:
  1.000  0.000  0.000  0.000  0.000
  0.000  1.000  0.000  0.000  0.000
  0.000  0.000  1.000  0.000  0.000
  0.000  0.000  0.000  1.000  0.000
  0.000  0.000  0.000  0.000  1.000
    occupations:
  0.000  0.000  0.000  0.000  0.000
  0.000  0.000  0.000  0.000  0.000
  0.000  0.000  0.000  0.000  0.000
  0.000  0.000  0.000  0.000  0.000
  0.000  0.000  0.000  0.000  0.000
atomic mag. moment =     5.000000
atom    2   Tr[ns(na)] (up, down, total) =   5.00000  0.00000  5.00000
   spin  1
    eigenvalues:
  1.000  1.000  1.000  1.000  1.000
    eigenvectors:
  1.000  0.000  0.000  0.000  0.000
  0.000  1.000  0.000  0.000  0.000
  0.000  0.000  1.000  0.000  0.000
  0.000  0.000  0.000  1.000  0.000
  0.000  0.000  0.000  0.000  1.000
    occupations:
  1.000  0.000  0.000  0.000  0.000
  0.000  1.000  0.000  0.000  0.000
  0.000  0.000  1.000  0.000  0.000
  0.000  0.000  0.000  1.000  0.000
  0.000  0.000  0.000  0.000  1.000
   spin  2
    eigenvalues:
  0.000  0.000  0.000  0.000  0.000
    eigenvectors:
  1.000  0.000  0.000  0.000  0.000
  0.000  1.000  0.000  0.000  0.000
  0.000  0.000  1.000  0.000  0.000
  0.000  0.000  0.000  1.000  0.000
  0.000  0.000  0.000  0.000  1.000
    occupations:
  0.000  0.000  0.000  0.000  0.000
  0.000  0.000  0.000  0.000  0.000
  0.000  0.000  0.000  0.000  0.000
  0.000  0.000  0.000  0.000  0.000
  0.000  0.000  0.000  0.000  0.000
atomic mag. moment =     5.000000
atom    3   Tr[ns(na)] (up, down, total) =   5.00000  0.00000  5.00000
   spin  1
    eigenvalues:
  1.000  1.000  1.000  1.000  1.000
    eigenvectors:
  1.000  0.000  0.000  0.000  0.000
  0.000  1.000  0.000  0.000  0.000
  0.000  0.000  1.000  0.000  0.000
  0.000  0.000  0.000  1.000  0.000
  0.000  0.000  0.000  0.000  1.000
    occupations:
  1.000  0.000  0.000  0.000  0.000
  0.000  1.000  0.000  0.000  0.000
  0.000  0.000  1.000  0.000  0.000
  0.000  0.000  0.000  1.000  0.000
  0.000  0.000  0.000  0.000  1.000
   spin  2
    eigenvalues:
  0.000  0.000  0.000  0.000  0.000
    eigenvectors:
  1.000  0.000  0.000  0.000  0.000
  0.000  1.000  0.000  0.000  0.000
  0.000  0.000  1.000  0.000  0.000
  0.000  0.000  0.000  1.000  0.000
  0.000  0.000  0.000  0.000  1.000
    occupations:
  0.000  0.000  0.000  0.000  0.000
  0.000  0.000  0.000  0.000  0.000
  0.000  0.000  0.000  0.000  0.000
  0.000  0.000  0.000  0.000  0.000
  0.000  0.000  0.000  0.000  0.000
atomic mag. moment =     5.000000
atom    4   Tr[ns(na)] (up, down, total) =   5.00000  0.00000  5.00000
   spin  1
    eigenvalues:
  1.000  1.000  1.000  1.000  1.000
    eigenvectors:
  1.000  0.000  0.000  0.000  0.000
  0.000  1.000  0.000  0.000  0.000
  0.000  0.000  1.000  0.000  0.000
  0.000  0.000  0.000  1.000  0.000
  0.000  0.000  0.000  0.000  1.000
    occupations:
  1.000  0.000  0.000  0.000  0.000
  0.000  1.000  0.000  0.000  0.000
  0.000  0.000  1.000  0.000  0.000
  0.000  0.000  0.000  1.000  0.000
  0.000  0.000  0.000  0.000  1.000
   spin  2
    eigenvalues:
  0.000  0.000  0.000  0.000  0.000
    eigenvectors:
  1.000  0.000  0.000  0.000  0.000
  0.000  1.000  0.000  0.000  0.000
  0.000  0.000  1.000  0.000  0.000
  0.000  0.000  0.000  1.000  0.000
  0.000  0.000  0.000  0.000  1.000
    occupations:
  0.000  0.000  0.000  0.000  0.000
  0.000  0.000  0.000  0.000  0.000
  0.000  0.000  0.000  0.000  0.000
  0.000  0.000  0.000  0.000  0.000
  0.000  0.000  0.000  0.000  0.000
atomic mag. moment =     5.000000
atom    5   Tr[ns(na)] (up, down, total) =   0.00000  5.00000  5.00000
   spin  1
    eigenvalues:
  0.000  0.000  0.000  0.000  0.000
    eigenvectors:
  1.000  0.000  0.000  0.000  0.000
  0.000  1.000  0.000  0.000  0.000
  0.000  0.000  1.000  0.000  0.000
  0.000  0.000  0.000  1.000  0.000
  0.000  0.000  0.000  0.000  1.000
[...]
   spin  2
    eigenvalues:
  0.055  0.074  0.085  0.085  0.125
    eigenvectors:
  0.000  1.000  0.000  0.000  0.000
  0.000  0.000  0.354  0.646  0.000
  0.000  0.000  0.646  0.354  0.000
  1.000  0.000  0.000  0.000  0.000
  0.000  0.000  0.000  0.000  1.000
    occupations:
  0.074 -0.000 -0.000  0.000  0.000
 -0.000  0.085 -0.000  0.000  0.000
 -0.000 -0.000  0.085  0.000  0.000
  0.000  0.000  0.000  0.055 -0.000
  0.000  0.000  0.000 -0.000  0.125
atomic mag. moment =     4.594811
atom    5   Tr[ns(na)] (up, down, total) =   0.42709  5.01735  5.44443
   spin  1
    eigenvalues:
  0.056  0.075  0.084  0.084  0.129
    eigenvectors:
  0.000  1.000  0.000  0.000  0.000
  0.000  0.000  0.320  0.680  0.000
  0.000  0.000  0.680  0.320  0.000
  1.000  0.000  0.000  0.000  0.000
  0.000  0.000  0.000  0.000  1.000
    occupations:
  0.075 -0.000 -0.000  0.000  0.000
 -0.000  0.084 -0.000  0.000  0.000
 -0.000 -0.000  0.084  0.000  0.000
  0.000  0.000  0.000  0.056 -0.000
  0.000  0.000  0.000 -0.000  0.129
   spin  2
    eigenvalues:
  1.003  1.003  1.003  1.004  1.004
    eigenvectors:
  0.000  0.000  0.000  1.000  0.000
  0.000  0.277  0.723  0.000  0.000
  0.000  0.723  0.277  0.000  0.000
  0.000  0.000  0.000  0.000  1.000
  1.000  0.000  0.000  0.000  0.000
    occupations:
  1.004 -0.000 -0.000  0.000  0.000
 -0.000  1.003 -0.000  0.000  0.000
 -0.000 -0.000  1.003  0.000  0.000
  0.000  0.000  0.000  1.004 -0.000
  0.000  0.000  0.000 -0.000  1.003
atomic mag. moment =    -4.590262
atom    6   Tr[ns(na)] (up, down, total) =   5.01756  0.41729  5.43485
   spin  1
    eigenvalues:
  1.003  1.003  1.003  1.004  1.004
    eigenvectors:
  0.000  0.000  0.000  1.000  0.000
  0.000  0.367  0.633  0.000  0.000
  0.000  0.633  0.367  0.000  0.000
  0.000  0.000  0.000  0.000  1.000
  1.000  0.000  0.000  0.000  0.000
    occupations:
  1.004 -0.000 -0.000  0.000  0.000
 -0.000  1.003 -0.000  0.000  0.000
 -0.000 -0.000  1.003  0.000  0.000
  0.000  0.000  0.000  1.004 -0.000
  0.000  0.000  0.000 -0.000  1.003
   spin  2
    eigenvalues:
  0.055  0.075  0.085  0.085  0.118
    eigenvectors:
  0.000  1.000  0.000  0.000  0.000
  0.000  0.000  0.304  0.696  0.000
  0.000  0.000  0.696  0.304  0.000
  1.000  0.000  0.000  0.000  0.000
  0.000  0.000  0.000  0.000  1.000
    occupations:
  0.075 -0.000 -0.000  0.000  0.000
 -0.000  0.085 -0.000  0.000  0.000
 -0.000 -0.000  0.085  0.000  0.000
  0.000  0.000  0.000  0.055 -0.000
  0.000  0.000  0.000 -0.000  0.118
atomic mag. moment =     4.600263
atom    7   Tr[ns(na)] (up, down, total) =   5.01756  0.41729  5.43485
   spin  1
    eigenvalues:
  1.003  1.003  1.003  1.004  1.004
    eigenvectors:
  0.000  0.000  0.000  1.000  0.000
  0.000  0.298  0.702  0.000  0.000
  0.000  0.702  0.298  0.000  0.000
  0.000  0.000  0.000  0.000  1.000
  1.000  0.000  0.000  0.000  0.000
    occupations:
  1.004 -0.000 -0.000  0.000  0.000
 -0.000  1.003 -0.000  0.000  0.000
 -0.000 -0.000  1.003  0.000  0.000
  0.000  0.000  0.000  1.004 -0.000
  0.000  0.000  0.000 -0.000  1.003
   spin  2
    eigenvalues:
  0.055  0.075  0.085  0.085  0.118
    eigenvectors:
  0.000  1.000  0.000  0.000  0.000
  0.000  0.000  0.401  0.599  0.000
  0.000  0.000  0.599  0.401  0.000
  1.000  0.000  0.000  0.000  0.000
  0.000  0.000  0.000  0.000  1.000
    occupations:
  0.075 -0.000 -0.000  0.000  0.000
 -0.000  0.085 -0.000  0.000  0.000
 -0.000 -0.000  0.085  0.000  0.000
  0.000  0.000  0.000  0.055 -0.000
  0.000  0.000  0.000 -0.000  0.118
atomic mag. moment =     4.600263
atom    8   Tr[ns(na)] (up, down, total) =   0.42709  5.01735  5.44443
   spin  1
    eigenvalues:
  0.056  0.075  0.084  0.084  0.129
    eigenvectors:
  0.000  1.000  0.000  0.000  0.000
  0.000  0.000  0.292  0.708  0.000
  0.000  0.000  0.708  0.292  0.000
  1.000  0.000  0.000  0.000  0.000
  0.000  0.000  0.000  0.000  1.000
    occupations:
  0.075 -0.000 -0.000  0.000  0.000
 -0.000  0.084 -0.000  0.000  0.000
 -0.000 -0.000  0.084  0.000  0.000
  0.000  0.000  0.000  0.056 -0.000
  0.000  0.000  0.000 -0.000  0.129
   spin  2
    eigenvalues:
  1.003  1.003  1.003  1.004  1.004
    eigenvectors:
  0.000  0.000  0.000  1.000  0.000
  0.000  0.400  0.600  0.000  0.000
  0.000  0.600  0.400  0.000  0.000
  0.000  0.000  0.000  0.000  1.000
  1.000  0.000  0.000  0.000  0.000
    occupations:
  1.004 -0.000 -0.000  0.000  0.000
 -0.000  1.003 -0.000  0.000  0.000
 -0.000 -0.000  1.003  0.000  0.000
  0.000  0.000  0.000  1.004 -0.000
  0.000  0.000  0.000 -0.000  1.003
atomic mag. moment =    -4.590262
N of occupied +U levels =   43.516181
 --- exit write_ns ---

     total energy              =  -14687.23946179 Ry
     Harris-Foulkes estimate   =  -14685.78171046 Ry
     estimated scf accuracy    <      11.61790507 Ry

     total magnetization       =    20.08 Bohr mag/cell
     absolute magnetization    =    41.44 Bohr mag/cell

     iteration #  2     ecut=    45.00 Ry     beta= 0.10
     Davidson diagonalization with overlap
     ethr =  3.92E-03,  avg # of iterations =  1.0

[...]

     total energy              =  -14693.98368908 Ry
     Harris-Foulkes estimate   =  -14693.98368702 Ry
     estimated scf accuracy    <       0.00000147 Ry

[...]

     iteration # 22     ecut=    45.00 Ry     beta= 0.10
     Davidson diagonalization with overlap
     ethr =  4.98E-10,  avg # of iterations =  2.4

     Magnetic moment per site:
     atom:    1    charge:   13.5368    magn:    4.2471    constr:    0.0000
     atom:    2    charge:   13.5415    magn:    4.2145    constr:    0.0000
     atom:    3    charge:   13.5489    magn:    4.1682    constr:    0.0000
     atom:    4    charge:   13.5415    magn:    4.2145    constr:    0.0000
     atom:    5    charge:   13.5392    magn:   -4.2324    constr:    0.0000
     atom:    6    charge:   13.5485    magn:    4.1686    constr:    0.0000
     atom:    7    charge:   13.5485    magn:    4.1686    constr:    0.0000
     atom:    8    charge:   13.5392    magn:   -4.2324    constr:    0.0000
     atom:    9    charge:    9.0907    magn:    0.0431    constr:    0.0000
     atom:   10    charge:    9.0866    magn:    0.0277    constr:    0.0000
     atom:   11    charge:    9.0891    magn:    0.0336    constr:    0.0000
     atom:   12    charge:    9.0920    magn:    0.0430    constr:    0.0000
     atom:   13    charge:    9.0920    magn:    0.0430    constr:    0.0000
     atom:   14    charge:    9.0891    magn:    0.0336    constr:    0.0000
     atom:   15    charge:    9.0866    magn:    0.0277    constr:    0.0000
     atom:   16    charge:    9.0907    magn:    0.0431    constr:    0.0000
     atom:   17    charge:    9.0920    magn:   -0.0414    constr:    0.0000
     atom:   18    charge:    9.0885    magn:    0.0324    constr:    0.0000
     atom:   19    charge:    9.0878    magn:    0.0320    constr:    0.0000
     atom:   20    charge:    9.0918    magn:   -0.0428    constr:    0.0000
     atom:   21    charge:    9.0918    magn:   -0.0428    constr:    0.0000
     atom:   22    charge:    9.0878    magn:    0.0320    constr:    0.0000
     atom:   23    charge:    9.0885    magn:    0.0324    constr:    0.0000
     atom:   24    charge:    9.0920    magn:   -0.0414    constr:    0.0000

     End of self-consistent calculation
 --- enter write_ns ---
 LDA+U parameters:
U(  1) =   3.1200   J(  1) =   0.7000   B(  1) =   0.0803
U(  2) =   3.1200   J(  2) =   0.7000   B(  2) =   0.0803
atom    1   Tr[ns(na)] (up, down, total) =   4.97156  0.72764  5.69921
   spin  1
    eigenvalues:
  0.984  0.994  0.994  0.998  1.002
    eigenvectors:
  0.000  0.000  0.000  1.000  0.000
  0.000  0.307  0.693  0.000  0.000
  0.000  0.693  0.307  0.000  0.000
  0.000  0.000  0.000  0.000  1.000
  1.000  0.000  0.000  0.000  0.000
    occupations:
  0.998 -0.000 -0.000  0.000  0.000
 -0.000  0.994 -0.000  0.000  0.000
 -0.000 -0.000  0.994  0.000  0.000
  0.000  0.000  0.000  1.002 -0.000
  0.000  0.000  0.000 -0.000  0.984
   spin  2
    eigenvalues:
  0.068  0.109  0.151  0.151  0.249
    eigenvectors:
  0.000  1.000  0.000  0.000  0.000
  0.000  0.000  0.281  0.719  0.000
  0.000  0.000  0.719  0.281  0.000
  1.000  0.000  0.000  0.000  0.000
  0.000  0.000  0.000  0.000  1.000
    occupations:
  0.109 -0.000 -0.000  0.000  0.000
 -0.000  0.151 -0.000  0.000  0.000
 -0.000 -0.000  0.151  0.000  0.000
  0.000  0.000  0.000  0.068 -0.000
  0.000  0.000  0.000 -0.000  0.249
atomic mag. moment =     4.243917
atom    2   Tr[ns(na)] (up, down, total) =   4.96962  0.75383  5.72345
   spin  1
    eigenvalues:
  0.984  0.993  0.993  0.997  1.002
    eigenvectors:
  0.000  0.000  0.000  1.000  0.000
  0.000  0.370  0.630  0.000  0.000
  0.000  0.630  0.370  0.000  0.000
  0.000  0.000  0.000  0.000  1.000
  1.000  0.000  0.000  0.000  0.000
    occupations:
  0.997 -0.000 -0.000  0.000  0.000
 -0.000  0.993 -0.000  0.000  0.000
 -0.000 -0.000  0.993  0.000  0.000
  0.000  0.000  0.000  1.002 -0.000
  0.000  0.000  0.000 -0.000  0.984
   spin  2
    eigenvalues:
  0.068  0.128  0.152  0.152  0.255
    eigenvectors:
  0.000  1.000  0.000  0.000  0.000
  0.000  0.000  0.346  0.654  0.000
  0.000  0.000  0.654  0.346  0.000
  1.000  0.000  0.000  0.000  0.000
  0.000  0.000  0.000  0.000  1.000
    occupations:
  0.128 -0.000 -0.000  0.000  0.000
 -0.000  0.152 -0.000  0.000  0.000
 -0.000 -0.000  0.152  0.000  0.000
  0.000  0.000  0.000  0.068 -0.000
  0.000  0.000  0.000 -0.000  0.255
atomic mag. moment =     4.215788
atom    3   Tr[ns(na)] (up, down, total) =   4.96543  0.79123  5.75665
   spin  1
    eigenvalues:
  0.983  0.992  0.992  0.997  1.002
    eigenvectors:
  0.000  0.000  0.000  1.000  0.000
  0.000  0.388  0.612  0.000  0.000
  0.000  0.612  0.388  0.000  0.000
  0.000  0.000  0.000  0.000  1.000
  1.000  0.000  0.000  0.000  0.000
    occupations:
  0.997 -0.000 -0.000  0.000  0.000
 -0.000  0.992 -0.000  0.000  0.000
 -0.000 -0.000  0.992  0.000  0.000
  0.000  0.000  0.000  1.002 -0.000
  0.000  0.000  0.000 -0.000  0.983
   spin  2
    eigenvalues:
  0.066  0.146  0.152  0.152  0.276
    eigenvectors:
  0.000  1.000  0.000  0.000  0.000
  0.000  0.000  0.332  0.668  0.000
  0.000  0.000  0.668  0.332  0.000
  1.000  0.000  0.000  0.000  0.000
  0.000  0.000  0.000  0.000  1.000
    occupations:
  0.146 -0.000 -0.000  0.000  0.000
 -0.000  0.152 -0.000  0.000  0.000
 -0.000 -0.000  0.152  0.000  0.000
  0.000  0.000  0.000  0.066 -0.000
  0.000  0.000  0.000 -0.000  0.276
atomic mag. moment =     4.174200
atom    4   Tr[ns(na)] (up, down, total) =   4.96962  0.75383  5.72345
   spin  1
    eigenvalues:
  0.984  0.993  0.993  0.997  1.002
    eigenvectors:
  0.000  0.000  0.000  1.000  0.000
  0.000  0.300  0.700  0.000  0.000
  0.000  0.700  0.300  0.000  0.000
  0.000  0.000  0.000  0.000  1.000
  1.000  0.000  0.000  0.000  0.000
    occupations:
  0.997 -0.000 -0.000  0.000  0.000
 -0.000  0.993 -0.000  0.000  0.000
 -0.000 -0.000  0.993  0.000  0.000
  0.000  0.000  0.000  1.002 -0.000
  0.000  0.000  0.000 -0.000  0.984
   spin  2
    eigenvalues:
  0.068  0.128  0.152  0.152  0.255
    eigenvectors:
  0.000  1.000  0.000  0.000  0.000
  0.000  0.000  0.394  0.606  0.000
  0.000  0.000  0.606  0.394  0.000
  1.000  0.000  0.000  0.000  0.000
  0.000  0.000  0.000  0.000  1.000
    occupations:
  0.128 -0.000 -0.000  0.000  0.000
 -0.000  0.152 -0.000  0.000  0.000
 -0.000 -0.000  0.152  0.000  0.000
  0.000  0.000  0.000  0.068 -0.000
  0.000  0.000  0.000 -0.000  0.255
atomic mag. moment =     4.215788
atom    5   Tr[ns(na)] (up, down, total) =   0.74022  4.96984  5.71007
   spin  1
    eigenvalues:
  0.067  0.120  0.150  0.150  0.252
    eigenvectors:
  0.000  1.000  0.000  0.000  0.000
  0.000  0.000  0.259  0.741  0.000
  0.000  0.000  0.741  0.259  0.000
  1.000  0.000  0.000  0.000  0.000
  0.000  0.000  0.000  0.000  1.000
    occupations:
  0.120 -0.000 -0.000  0.000  0.000
 -0.000  0.150 -0.000  0.000  0.000
 -0.000 -0.000  0.150  0.000  0.000
  0.000  0.000  0.000  0.067 -0.000
  0.000  0.000  0.000 -0.000  0.252
   spin  2
    eigenvalues:
  0.984  0.993  0.993  0.997  1.002
    eigenvectors:
  0.000  0.000  0.000  1.000  0.000
  0.000  0.297  0.703  0.000  0.000
  0.000  0.703  0.297  0.000  0.000
  0.000  0.000  0.000  0.000  1.000
  1.000  0.000  0.000  0.000  0.000
    occupations:
  0.997 -0.000 -0.000  0.000  0.000
 -0.000  0.993 -0.000  0.000  0.000
 -0.000 -0.000  0.993  0.000  0.000
  0.000  0.000  0.000  1.002 -0.000
  0.000  0.000  0.000 -0.000  0.984
atomic mag. moment =    -4.229616
atom    6   Tr[ns(na)] (up, down, total) =   4.96544  0.79132  5.75676
   spin  1
    eigenvalues:
  0.983  0.992  0.992  0.996  1.002
    eigenvectors:
  0.000  0.000  0.000  1.000  0.000
  0.000  0.309  0.691  0.000  0.000
  0.000  0.691  0.309  0.000  0.000
  0.000  0.000  0.000  0.000  1.000
  1.000  0.000  0.000  0.000  0.000
    occupations:
  0.996 -0.000 -0.000  0.000  0.000
 -0.000  0.992 -0.000  0.000  0.000
 -0.000 -0.000  0.992  0.000  0.000
  0.000  0.000  0.000  1.002 -0.000
  0.000  0.000  0.000 -0.000  0.983
   spin  2
    eigenvalues:
  0.066  0.143  0.153  0.153  0.276
    eigenvectors:
  0.000  1.000  0.000  0.000  0.000
  0.000  0.000  0.314  0.686  0.000
  0.000  0.000  0.686  0.314  0.000
  1.000  0.000  0.000  0.000  0.000
  0.000  0.000  0.000  0.000  1.000
    occupations:
  0.143 -0.000 -0.000  0.000  0.000
 -0.000  0.153 -0.000  0.000  0.000
 -0.000 -0.000  0.153  0.000  0.000
  0.000  0.000  0.000  0.066 -0.000
  0.000  0.000  0.000 -0.000  0.276
atomic mag. moment =     4.174117
atom    7   Tr[ns(na)] (up, down, total) =   4.96544  0.79132  5.75676
   spin  1
    eigenvalues:
  0.983  0.992  0.992  0.996  1.002
    eigenvectors:
  0.000  0.000  0.000  1.000  0.000
  0.000  0.327  0.673  0.000  0.000
  0.000  0.673  0.327  0.000  0.000
  0.000  0.000  0.000  0.000  1.000
  1.000  0.000  0.000  0.000  0.000
    occupations:
  0.996 -0.000 -0.000  0.000  0.000
 -0.000  0.992 -0.000  0.000  0.000
 -0.000 -0.000  0.992  0.000  0.000
  0.000  0.000  0.000  1.002 -0.000
  0.000  0.000  0.000 -0.000  0.983
   spin  2
    eigenvalues:
  0.066  0.143  0.153  0.153  0.276
    eigenvectors:
  0.000  1.000  0.000  0.000  0.000
  0.000  0.000  0.279  0.721  0.000
  0.000  0.000  0.721  0.279  0.000
  1.000  0.000  0.000  0.000  0.000
  0.000  0.000  0.000  0.000  1.000
    occupations:
  0.143 -0.000 -0.000  0.000  0.000
 -0.000  0.153 -0.000  0.000  0.000
 -0.000 -0.000  0.153  0.000  0.000
  0.000  0.000  0.000  0.066 -0.000
  0.000  0.000  0.000 -0.000  0.276
atomic mag. moment =     4.174117
atom    8   Tr[ns(na)] (up, down, total) =   0.74022  4.96984  5.71007
   spin  1
    eigenvalues:
  0.067  0.120  0.150  0.150  0.252
    eigenvectors:
  0.000  1.000  0.000  0.000  0.000
  0.000  0.000  0.316  0.684  0.000
  0.000  0.000  0.684  0.316  0.000
  1.000  0.000  0.000  0.000  0.000
  0.000  0.000  0.000  0.000  1.000
    occupations:
  0.120 -0.000 -0.000  0.000  0.000
 -0.000  0.150 -0.000  0.000  0.000
 -0.000 -0.000  0.150  0.000  0.000
  0.000  0.000  0.000  0.067 -0.000
  0.000  0.000  0.000 -0.000  0.252
   spin  2
    eigenvalues:
  0.984  0.993  0.993  0.997  1.002
    eigenvectors:
  0.000  0.000  0.000  1.000  0.000
  0.000  0.266  0.734  0.000  0.000
  0.000  0.734  0.266  0.000  0.000
  0.000  0.000  0.000  0.000  1.000
  1.000  0.000  0.000  0.000  0.000
    occupations:
  0.997 -0.000 -0.000  0.000  0.000
 -0.000  0.993 -0.000  0.000  0.000
 -0.000 -0.000  0.993  0.000  0.000
  0.000  0.000  0.000  1.002 -0.000
  0.000  0.000  0.000 -0.000  0.984
atomic mag. moment =    -4.229616
N of occupied +U levels =   45.836400
 --- exit write_ns ---

     Number of k-points >= 100: set verbosity='high' to print the bands.

     the Fermi energy is    15.5518 ev

!    total energy              =  -14693.98369754 Ry
     Harris-Foulkes estimate   =  -14693.98368932 Ry
     estimated scf accuracy    <       0.00000053 Ry

     total all-electron energy =   -626921.579419 Ry

     The total energy is the sum of the following terms:

     one-electron contribution =    -698.61600222 Ry
     hartree contribution      =     651.67082273 Ry
     xc contribution           =    -738.08248352 Ry
     ewald contribution        =   -2207.56121140 Ry
     Hubbard energy            =       0.46319001 Ry
     one-center paw contrib.   =  -11701.85801315 Ry

     total magnetization       =    17.17 Bohr mag/cell
     absolute magnetization    =    37.02 Bohr mag/cell

     convergence has been achieved in  22 iterations

     Writing output data file mnau2.save/

     General routines

     Parallel routines

     Hubbard U routines

      15h

   This run was terminated on:   8:46:49  16May2019

   JOB DONE.