     Program PWSCF v.6.3MaX starts on 12Apr2019 at 19:26:35

     R & G space division:  proc/nbgrp/npool/nimage =      32
     Waiting for input...
     Reading input from standard input

     Current dimensions of program PWSCF are:
     Max number of different atomic species (ntypx) = 10
     Max number of k-points (npk) =  40000
     Max angular momentum in pseudopotentials (lmaxx) =  3
               file Mn.pbe-spn-kjpaw_psl.0.3.1.UPF: wavefunction(s)  3P 3D renormalized
               file Mn.pbe-spn-kjpaw_psl.0.3.1.UPF: wavefunction(s)  3P 3D renormalized
               file Au.pbe-dn-kjpaw_psl.0.1.UPF: wavefunction(s)  6S 6P 5D renormalized

     bravais-lattice index     =            0
     lattice parameter (alat)  =       6.4153  a.u.
     unit-cell volume          =    2724.7774 (a.u.)^3
     number of atoms/cell      =           24
     number of atomic types    =            3
     number of electrons       =       296.00
     number of Kohn-Sham states=          178
     kinetic-energy cutoff     =      45.0000  Ry
     charge density cutoff     =     400.0000  Ry
     convergence threshold     =      1.0E-06
     mixing beta               =       0.1000
     number of iterations used =            8  plain     mixing
     Exchange-correlation      = SLA PW PBX PBC ( 1  4  3  4 0 0)

     celldm(1)=   6.415315  celldm(2)=   0.000000  celldm(3)=   0.000000
     celldm(4)=   0.000000  celldm(5)=   0.000000  celldm(6)=   0.000000

     crystal axes: (cart. coord. in units of alat)
               a(1) = (   1.000000   0.000000   0.000000 )
               a(2) = (   0.000000   1.000000   0.000000 )
               a(3) = (   0.000000   0.000000  10.319937 )

     reciprocal axes: (cart. coord. in units 2 pi/alat)
               b(1) = (  1.000000  0.000000  0.000000 )
               b(2) = (  0.000000  1.000000  0.000000 )
               b(3) = (  0.000000  0.000000  0.096900 )

     PseudoPot. # 1 for Mn read from file:
     ./pseudo/Mn.pbe-spn-kjpaw_psl.0.3.1.UPF
     MD5 check sum: 7b43a3fb0e93e198b8dd8488d8cf503e
     Pseudo is Projector augmented-wave + core cor, Zval = 15.0
     Generated using "atomic" code by A. Dal Corso v.5.0.99 svn rev. 10869
     Shape of augmentation charge: PSQ
     Using radial grid of 1187 points,  6 beta functions with:
                l(1) =   0
                l(2) =   0
                l(3) =   1
                l(4) =   1
                l(5) =   2
                l(6) =   2
     Q(r) pseudized with 0 coefficients

     PseudoPot. # 2 for Mn read from file:
     ./pseudo/Mn.pbe-spn-kjpaw_psl.0.3.1.UPF
     MD5 check sum: 7b43a3fb0e93e198b8dd8488d8cf503e
     Pseudo is Projector augmented-wave + core cor, Zval = 15.0
     Generated using "atomic" code by A. Dal Corso v.5.0.99 svn rev. 10869
     Shape of augmentation charge: PSQ
     Using radial grid of 1187 points,  6 beta functions with:
                l(1) =   0
                l(2) =   0
                l(3) =   1
                l(4) =   1
                l(5) =   2
                l(6) =   2
     Q(r) pseudized with 0 coefficients

     PseudoPot. # 3 for Au read from file:
     ./pseudo/Au.pbe-dn-kjpaw_psl.0.1.UPF
     MD5 check sum: be11e2e8e535ebe2b3ccfb4f88f554cb
     Pseudo is Projector augmented-wave + core cor, Zval = 11.0
     Generated using "atomic" code by A. Dal Corso v.5.0.2 svn rev. 9415
     Shape of augmentation charge: PSQ
     Using radial grid of 1279 points,  6 beta functions with:
                l(1) =   0
                l(2) =   0
                l(3) =   1
                l(4) =   1
                l(5) =   2
                l(6) =   2
     Q(r) pseudized with 0 coefficients

     atomic species   valence    mass     pseudopotential
        Mn1           15.00    54.93800     Mn( 1.00)
        Mn2           15.00    54.93800     Mn( 1.00)
        Au            11.00   196.96600     Au( 1.00)

     Starting magnetic structure
     atomic species   magnetization
        Mn1          0.800
        Mn2         -0.800
        Au           0.000

     Full LDA+U calculation (l_max = 2) with parameters (eV):
     U(  1) =   3.1200   J(  1) =   0.7000   B(  1) =   0.0803
     U(  2) =   3.1200   J(  2) =   0.7000   B(  2) =   0.0803

      8 Sym. Ops. (no inversion) found

   Cartesian axes

     site n.     atom                  positions (alat units)
         1           Mn1 tau(   1) = (   0.0000000   0.0000000   0.0000000  )
         2           Mn1 tau(   2) = (   0.5000000   0.5000000   1.2899921  )
         3           Mn1 tau(   3) = (   0.0000000   0.0000000   2.5799843  )
         4           Mn2 tau(   4) = (   0.5000000   0.5000000   3.8699764  )
         5           Mn1 tau(   5) = (   0.0000000   0.0000000   5.1599686  )
         6           Mn2 tau(   6) = (   0.5000000   0.5000000   6.4499607  )
         7           Mn2 tau(   7) = (   0.0000000   0.0000000   7.7399528  )
         8           Mn2 tau(   8) = (   0.5000000   0.5000000   9.0299450  )
         9           Au  tau(   9) = (   0.5000000   0.5000000   0.4127975  )
        10           Au  tau(  10) = (   0.0000000   0.0000000   0.8771947  )
        11           Au  tau(  11) = (   0.0000000   0.0000000   1.7027896  )
        12           Au  tau(  12) = (   0.5000000   0.5000000   2.1671868  )
        13           Au  tau(  13) = (   0.5000000   0.5000000   2.9927818  )
        14           Au  tau(  14) = (   0.0000000   0.0000000   3.4571789  )
        15           Au  tau(  15) = (   0.0000000   0.0000000   4.2827739  )
        16           Au  tau(  16) = (   0.5000000   0.5000000   4.7471711  )
        17           Au  tau(  17) = (   0.5000000   0.5000000   5.5727660  )
        18           Au  tau(  18) = (   0.0000000   0.0000000   6.0371632  )
        19           Au  tau(  19) = (   0.0000000   0.0000000   6.8627582  )
        20           Au  tau(  20) = (   0.5000000   0.5000000   7.3271553  )
        21           Au  tau(  21) = (   0.5000000   0.5000000   8.1527503  )
        22           Au  tau(  22) = (   0.0000000   0.0000000   8.6171475  )
        23           Au  tau(  23) = (   0.0000000   0.0000000   9.4427424  )
        24           Au  tau(  24) = (   0.5000000   0.5000000   9.9071396  )

     number of k points=   135 (tetrahedron method)

     Number of k-points >= 100: set verbosity='high' to print them.

     Check: negative/imaginary core charge=   -0.000006    0.000000

     Initial potential from superposition of free atoms

     starting charge  295.99426, renormalised to  296.00000
     Number of +U iterations with fixed ns =  0
     Starting occupations:
 --- enter write_ns ---
 LDA+U parameters:
U(  1) =   3.1200   J(  1) =   0.7000   B(  1) =   0.0803
U(  2) =   3.1200   J(  2) =   0.7000   B(  2) =   0.0803
atom    1   Tr[ns(na)] (up, down, total) =   5.00000  0.00000  5.00000
   spin  1
    eigenvalues:
  1.000  1.000  1.000  1.000  1.000
    eigenvectors:
  1.000  0.000  0.000  0.000  0.000
  0.000  1.000  0.000  0.000  0.000
  0.000  0.000  1.000  0.000  0.000
  0.000  0.000  0.000  1.000  0.000
  0.000  0.000  0.000  0.000  1.000
    occupations:
  1.000  0.000  0.000  0.000  0.000
  0.000  1.000  0.000  0.000  0.000
  0.000  0.000  1.000  0.000  0.000
  0.000  0.000  0.000  1.000  0.000
  0.000  0.000  0.000  0.000  1.000
   spin  2
    eigenvalues:
  0.000  0.000  0.000  0.000  0.000
    eigenvectors:
  1.000  0.000  0.000  0.000  0.000
  0.000  1.000  0.000  0.000  0.000
  0.000  0.000  1.000  0.000  0.000
  0.000  0.000  0.000  1.000  0.000
  0.000  0.000  0.000  0.000  1.000
    occupations:
  0.000  0.000  0.000  0.000  0.000
  0.000  0.000  0.000  0.000  0.000
  0.000  0.000  0.000  0.000  0.000
  0.000  0.000  0.000  0.000  0.000
  0.000  0.000  0.000  0.000  0.000
atomic mag. moment =     5.000000
atom    2   Tr[ns(na)] (up, down, total) =   5.00000  0.00000  5.00000
   spin  1
    eigenvalues:
  1.000  1.000  1.000  1.000  1.000
    eigenvectors:
  1.000  0.000  0.000  0.000  0.000
  0.000  1.000  0.000  0.000  0.000
  0.000  0.000  1.000  0.000  0.000
  0.000  0.000  0.000  1.000  0.000
  0.000  0.000  0.000  0.000  1.000
    occupations:
  1.000  0.000  0.000  0.000  0.000
  0.000  1.000  0.000  0.000  0.000
  0.000  0.000  1.000  0.000  0.000
  0.000  0.000  0.000  1.000  0.000
  0.000  0.000  0.000  0.000  1.000
   spin  2
    eigenvalues:
  0.000  0.000  0.000  0.000  0.000
    eigenvectors:
  1.000  0.000  0.000  0.000  0.000
  0.000  1.000  0.000  0.000  0.000
  0.000  0.000  1.000  0.000  0.000
  0.000  0.000  0.000  1.000  0.000
  0.000  0.000  0.000  0.000  1.000
    occupations:
  0.000  0.000  0.000  0.000  0.000
  0.000  0.000  0.000  0.000  0.000
  0.000  0.000  0.000  0.000  0.000
  0.000  0.000  0.000  0.000  0.000
  0.000  0.000  0.000  0.000  0.000
atomic mag. moment =     5.000000
atom    3   Tr[ns(na)] (up, down, total) =   5.00000  0.00000  5.00000
   spin  1
    eigenvalues:
  1.000  1.000  1.000  1.000  1.000
    eigenvectors:
  1.000  0.000  0.000  0.000  0.000
  0.000  1.000  0.000  0.000  0.000
  0.000  0.000  1.000  0.000  0.000
  0.000  0.000  0.000  1.000  0.000
  0.000  0.000  0.000  0.000  1.000
    occupations:
  1.000  0.000  0.000  0.000  0.000
  0.000  1.000  0.000  0.000  0.000
  0.000  0.000  1.000  0.000  0.000
  0.000  0.000  0.000  1.000  0.000
  0.000  0.000  0.000  0.000  1.000
   spin  2
    eigenvalues:
  0.000  0.000  0.000  0.000  0.000
    eigenvectors:
  1.000  0.000  0.000  0.000  0.000
  0.000  1.000  0.000  0.000  0.000
  0.000  0.000  1.000  0.000  0.000
  0.000  0.000  0.000  1.000  0.000
  0.000  0.000  0.000  0.000  1.000
    occupations:
  0.000  0.000  0.000  0.000  0.000
  0.000  0.000  0.000  0.000  0.000
  0.000  0.000  0.000  0.000  0.000
  0.000  0.000  0.000  0.000  0.000
  0.000  0.000  0.000  0.000  0.000
atomic mag. moment =     5.000000
atom    4   Tr[ns(na)] (up, down, total) =   0.00000  5.00000  5.00000
   spin  1
    eigenvalues:
  0.000  0.000  0.000  0.000  0.000
    eigenvectors:
  1.000  0.000  0.000  0.000  0.000
  0.000  1.000  0.000  0.000  0.000
  0.000  0.000  1.000  0.000  0.000
  0.000  0.000  0.000  1.000  0.000
  0.000  0.000  0.000  0.000  1.000
    occupations:
  0.000  0.000  0.000  0.000  0.000
  0.000  0.000  0.000  0.000  0.000
  0.000  0.000  0.000  0.000  0.000
  0.000  0.000  0.000  0.000  0.000
  0.000  0.000  0.000  0.000  0.000
   spin  2
    eigenvalues:
  1.000  1.000  1.000  1.000  1.000
    eigenvectors:
  1.000  0.000  0.000  0.000  0.000
  0.000  1.000  0.000  0.000  0.000
  0.000  0.000  1.000  0.000  0.000
  0.000  0.000  0.000  1.000  0.000
  0.000  0.000  0.000  0.000  1.000
    occupations:
  1.000  0.000  0.000  0.000  0.000
  0.000  1.000  0.000  0.000  0.000
  0.000  0.000  1.000  0.000  0.000
  0.000  0.000  0.000  1.000  0.000
  0.000  0.000  0.000  0.000  1.000
atomic mag. moment =    -5.000000
atom    5   Tr[ns(na)] (up, down, total) =   5.00000  0.00000  5.00000
   spin  1
    eigenvalues:
  1.000  1.000  1.000  1.000  1.000
    eigenvectors:
  1.000  0.000  0.000  0.000  0.000
  0.000  1.000  0.000  0.000  0.000
  0.000  0.000  1.000  0.000  0.000
  0.000  0.000  0.000  1.000  0.000
  0.000  0.000  0.000  0.000  1.000
[...]
  0.000  0.000  0.000 -0.000  1.003
atomic mag. moment =    -4.606499
atom    5   Tr[ns(na)] (up, down, total) =   5.01736  0.41071  5.42807
   spin  1
    eigenvalues:
  1.003  1.003  1.003  1.004  1.004
    eigenvectors:
  0.000  0.000  0.000  1.000  0.000
  0.000  0.246  0.754  0.000  0.000
  0.000  0.754  0.246  0.000  0.000
  0.000  0.000  0.000  0.000  1.000
  1.000  0.000  0.000  0.000  0.000
    occupations:
  1.004 -0.000 -0.000  0.000  0.000
 -0.000  1.003 -0.000  0.000  0.000
 -0.000 -0.000  1.003  0.000  0.000
  0.000  0.000  0.000  1.004 -0.000
  0.000  0.000  0.000 -0.000  1.003
   spin  2
    eigenvalues:
  0.053  0.073  0.080  0.080  0.124
    eigenvectors:
  0.000  1.000  0.000  0.000  0.000
  0.000  0.000  0.349  0.651  0.000
  0.000  0.000  0.651  0.349  0.000
  1.000  0.000  0.000  0.000  0.000
  0.000  0.000  0.000  0.000  1.000
    occupations:
  0.073 -0.000 -0.000  0.000  0.000
 -0.000  0.080 -0.000  0.000  0.000
 -0.000 -0.000  0.080  0.000  0.000
  0.000  0.000  0.000  0.053 -0.000
  0.000  0.000  0.000 -0.000  0.124
atomic mag. moment =     4.606652
atom    6   Tr[ns(na)] (up, down, total) =   0.40810  5.01758  5.42568
   spin  1
    eigenvalues:
  0.053  0.072  0.081  0.081  0.121
    eigenvectors:
  0.000  1.000  0.000  0.000  0.000
  0.000  0.000  0.422  0.578  0.000
  0.000  0.000  0.578  0.422  0.000
  1.000  0.000  0.000  0.000  0.000
  0.000  0.000  0.000  0.000  1.000
    occupations:
  0.072 -0.000 -0.000  0.000  0.000
 -0.000  0.081 -0.000  0.000  0.000
 -0.000 -0.000  0.081  0.000  0.000
  0.000  0.000  0.000  0.053 -0.000
  0.000  0.000  0.000 -0.000  0.121
   spin  2
    eigenvalues:
  1.003  1.003  1.003  1.004  1.004
    eigenvectors:
  0.000  0.000  0.000  1.000  0.000
  0.000  0.385  0.615  0.000  0.000
  0.000  0.615  0.385  0.000  0.000
  0.000  0.000  0.000  0.000  1.000
  1.000  0.000  0.000  0.000  0.000
    occupations:
  1.004 -0.000 -0.000  0.000  0.000
 -0.000  1.003 -0.000  0.000  0.000
 -0.000 -0.000  1.003  0.000  0.000
  0.000  0.000  0.000  1.004 -0.000
  0.000  0.000  0.000 -0.000  1.003
atomic mag. moment =    -4.609483
atom    7   Tr[ns(na)] (up, down, total) =   0.40215  5.01767  5.41982
   spin  1
    eigenvalues:
  0.053  0.074  0.082  0.082  0.112
    eigenvectors:
  0.000  1.000  0.000  0.000  0.000
  0.000  0.000  0.342  0.658  0.000
  0.000  0.000  0.658  0.342  0.000
  1.000  0.000  0.000  0.000  0.000
  0.000  0.000  0.000  0.000  1.000
    occupations:
  0.074 -0.000 -0.000  0.000  0.000
 -0.000  0.082 -0.000  0.000  0.000
 -0.000 -0.000  0.082  0.000  0.000
  0.000  0.000  0.000  0.053 -0.000
  0.000  0.000  0.000 -0.000  0.112
   spin  2
    eigenvalues:
  1.003  1.003  1.003  1.004  1.004
    eigenvectors:
  0.000  0.000  0.000  1.000  0.000
  0.000  0.351  0.649  0.000  0.000
  0.000  0.649  0.351  0.000  0.000
  0.000  0.000  0.000  0.000  1.000
  1.000  0.000  0.000  0.000  0.000
    occupations:
  1.004 -0.000 -0.000  0.000  0.000
 -0.000  1.003 -0.000  0.000  0.000
 -0.000 -0.000  1.003  0.000  0.000
  0.000  0.000  0.000  1.004 -0.000
  0.000  0.000  0.000 -0.000  1.003
atomic mag. moment =    -4.615519
atom    8   Tr[ns(na)] (up, down, total) =   0.40794  5.01744  5.42538
   spin  1
    eigenvalues:
  0.053  0.073  0.081  0.081  0.120
    eigenvectors:
  0.000  1.000  0.000  0.000  0.000
  0.000  0.000  0.304  0.696  0.000
  0.000  0.000  0.696  0.304  0.000
  1.000  0.000  0.000  0.000  0.000
  0.000  0.000  0.000  0.000  1.000
    occupations:
  0.073 -0.000 -0.000  0.000  0.000
 -0.000  0.081 -0.000  0.000  0.000
 -0.000 -0.000  0.081  0.000  0.000
  0.000  0.000  0.000  0.053 -0.000
  0.000  0.000  0.000 -0.000  0.120
   spin  2
    eigenvalues:
  1.003  1.003  1.003  1.004  1.004
    eigenvectors:
  0.000  0.000  0.000  1.000  0.000
  0.000  0.288  0.712  0.000  0.000
  0.000  0.712  0.288  0.000  0.000
  0.000  0.000  0.000  0.000  1.000
  1.000  0.000  0.000  0.000  0.000
    occupations:
  1.004 -0.000 -0.000  0.000  0.000
 -0.000  1.003 -0.000  0.000  0.000
 -0.000 -0.000  1.003  0.000  0.000
  0.000  0.000  0.000  1.004 -0.000
  0.000  0.000  0.000 -0.000  1.003
atomic mag. moment =    -4.609500
N of occupied +U levels =   43.397736
 --- exit write_ns ---

     total energy              =  -14687.27735333 Ry
     Harris-Foulkes estimate   =  -14685.81796105 Ry
     estimated scf accuracy    <      11.55949688 Ry

     total magnetization       =    -0.00 Bohr mag/cell
     absolute magnetization    =    41.53 Bohr mag/cell

     iteration #  2     ecut=    45.00 Ry     beta= 0.10
     Davidson diagonalization with overlap
     ethr =  3.91E-03,  avg # of iterations =  1.0

[...]

     iteration #  9     ecut=    45.00 Ry     beta= 0.10
     Davidson diagonalization with overlap
     c_bands:  1 eigenvalues not converged
     ethr =  1.41E-04,  avg # of iterations =  3.8

[...]

     iteration # 13     ecut=    45.00 Ry     beta= 0.10
     Davidson diagonalization with overlap
     c_bands:  1 eigenvalues not converged
     ethr =  3.19E-06,  avg # of iterations =  3.0

[...]

     total energy              =  -14694.00623175 Ry
     Harris-Foulkes estimate   =  -14694.00623106 Ry
     estimated scf accuracy    <       0.00000119 Ry

[...]

     iteration # 30     ecut=    45.00 Ry     beta= 0.10
     Davidson diagonalization with overlap
     ethr =  4.02E-10,  avg # of iterations =  1.8

     Magnetic moment per site:
     atom:    1    charge:   13.5489    magn:    4.2280    constr:    0.0000
     atom:    2    charge:   13.5535    magn:    4.1980    constr:    0.0000
     atom:    3    charge:   13.5464    magn:    4.2467    constr:    0.0000
     atom:    4    charge:   13.5440    magn:   -4.2550    constr:    0.0000
     atom:    5    charge:   13.5439    magn:    4.2549    constr:    0.0000
     atom:    6    charge:   13.5465    magn:   -4.2467    constr:    0.0000
     atom:    7    charge:   13.5533    magn:   -4.1980    constr:    0.0000
     atom:    8    charge:   13.5490    magn:   -4.2281    constr:    0.0000
     atom:    9    charge:    9.1213    magn:    0.0326    constr:    0.0000
     atom:   10    charge:    9.1210    magn:    0.0330    constr:    0.0000
     atom:   11    charge:    9.1214    magn:    0.0346    constr:    0.0000
     atom:   12    charge:    9.1216    magn:    0.0322    constr:    0.0000
     atom:   13    charge:    9.1230    magn:    0.0422    constr:    0.0000
     atom:   14    charge:    9.1251    magn:   -0.0388    constr:    0.0000
     atom:   15    charge:    9.1246    magn:   -0.0436    constr:    0.0000
     atom:   16    charge:    9.1244    magn:    0.0436    constr:    0.0000
     atom:   17    charge:    9.1250    magn:    0.0388    constr:    0.0000
     atom:   18    charge:    9.1231    magn:   -0.0422    constr:    0.0000
     atom:   19    charge:    9.1217    magn:   -0.0322    constr:    0.0000
     atom:   20    charge:    9.1213    magn:   -0.0346    constr:    0.0000
     atom:   21    charge:    9.1209    magn:   -0.0330    constr:    0.0000
     atom:   22    charge:    9.1214    magn:   -0.0326    constr:    0.0000
     atom:   23    charge:    9.1229    magn:   -0.0394    constr:    0.0000
     atom:   24    charge:    9.1228    magn:    0.0394    constr:    0.0000

     End of self-consistent calculation
 --- enter write_ns ---
 LDA+U parameters:
U(  1) =   3.1200   J(  1) =   0.7000   B(  1) =   0.0803
U(  2) =   3.1200   J(  2) =   0.7000   B(  2) =   0.0803
atom    1   Tr[ns(na)] (up, down, total) =   4.97076  0.74241  5.71317
   spin  1
    eigenvalues:
  0.984  0.994  0.994  0.997  1.002
    eigenvectors:
  0.000  0.000  0.000  1.000  0.000
  0.000  0.315  0.685  0.000  0.000
  0.000  0.685  0.315  0.000  0.000
  0.000  0.000  0.000  0.000  1.000
  1.000  0.000  0.000  0.000  0.000
    occupations:
  0.997 -0.000 -0.000  0.000  0.000
 -0.000  0.994 -0.000  0.000  0.000
 -0.000 -0.000  0.994  0.000  0.000
  0.000  0.000  0.000  1.002 -0.000
  0.000  0.000  0.000 -0.000  0.984
   spin  2
    eigenvalues:
  0.065  0.133  0.145  0.145  0.256
    eigenvectors:
  0.000  1.000  0.000  0.000  0.000
  0.000  0.000  0.298  0.702  0.000
  0.000  0.000  0.702  0.298  0.000
  1.000  0.000  0.000  0.000  0.000
  0.000  0.000  0.000  0.000  1.000
    occupations:
  0.133 -0.000 -0.000  0.000  0.000
 -0.000  0.145 -0.000  0.000  0.000
 -0.000 -0.000  0.145  0.000  0.000
  0.000  0.000  0.000  0.065 -0.000
  0.000  0.000  0.000 -0.000  0.256
atomic mag. moment =     4.228355
atom    2   Tr[ns(na)] (up, down, total) =   4.96928  0.76736  5.73664
   spin  1
    eigenvalues:
  0.984  0.993  0.993  0.996  1.002
    eigenvectors:
  0.000  0.000  0.000  1.000  0.000
  0.000  0.314  0.686  0.000  0.000
  0.000  0.686  0.314  0.000  0.000
  0.000  0.000  0.000  0.000  1.000
  1.000  0.000  0.000  0.000  0.000
    occupations:
  0.996 -0.000 -0.000  0.000  0.000
 -0.000  0.993 -0.000  0.000  0.000
 -0.000 -0.000  0.993  0.000  0.000
  0.000  0.000  0.000  1.002 -0.000
  0.000  0.000  0.000 -0.000  0.984
   spin  2
    eigenvalues:
  0.063  0.139  0.148  0.148  0.269
    eigenvectors:
  0.000  1.000  0.000  0.000  0.000
  0.000  0.000  0.345  0.655  0.000
  0.000  0.000  0.655  0.345  0.000
  1.000  0.000  0.000  0.000  0.000
  0.000  0.000  0.000  0.000  1.000
    occupations:
  0.139 -0.000 -0.000  0.000  0.000
 -0.000  0.148 -0.000  0.000  0.000
 -0.000 -0.000  0.148  0.000  0.000
  0.000  0.000  0.000  0.063 -0.000
  0.000  0.000  0.000 -0.000  0.269
atomic mag. moment =     4.201916
atom    3   Tr[ns(na)] (up, down, total) =   4.97323  0.72704  5.70027
   spin  1
    eigenvalues:
  0.985  0.994  0.994  0.998  1.002
    eigenvectors:
  0.000  0.000  0.000  1.000  0.000
  0.000  0.314  0.686  0.000  0.000
  0.000  0.686  0.314  0.000  0.000
  0.000  0.000  0.000  0.000  1.000
  1.000  0.000  0.000  0.000  0.000
    occupations:
  0.998 -0.000 -0.000  0.000  0.000
 -0.000  0.994 -0.000  0.000  0.000
 -0.000 -0.000  0.994  0.000  0.000
  0.000  0.000  0.000  1.002 -0.000
  0.000  0.000  0.000 -0.000  0.985
   spin  2
    eigenvalues:
  0.065  0.120  0.147  0.147  0.248
    eigenvectors:
  0.000  1.000  0.000  0.000  0.000
  0.000  0.000  0.325  0.675  0.000
  0.000  0.000  0.675  0.325  0.000
  1.000  0.000  0.000  0.000  0.000
  0.000  0.000  0.000  0.000  1.000
    occupations:
  0.120 -0.000 -0.000  0.000  0.000
 -0.000  0.147 -0.000  0.000  0.000
 -0.000 -0.000  0.147  0.000  0.000
  0.000  0.000  0.000  0.065 -0.000
  0.000  0.000  0.000 -0.000  0.248
atomic mag. moment =     4.246192
atom    4   Tr[ns(na)] (up, down, total) =   0.71977  4.97225  5.69202
   spin  1
    eigenvalues:
  0.066  0.114  0.147  0.147  0.246
    eigenvectors:
  0.000  1.000  0.000  0.000  0.000
  0.000  0.000  0.278  0.722  0.000
  0.000  0.000  0.722  0.278  0.000
  1.000  0.000  0.000  0.000  0.000
  0.000  0.000  0.000  0.000  1.000
    occupations:
  0.114 -0.000 -0.000  0.000  0.000
 -0.000  0.147 -0.000  0.000  0.000
 -0.000 -0.000  0.147  0.000  0.000
  0.000  0.000  0.000  0.066 -0.000
  0.000  0.000  0.000 -0.000  0.246
   spin  2
    eigenvalues:
  0.985  0.994  0.994  0.996  1.003
    eigenvectors:
  0.000  0.000  0.000  1.000  0.000
  0.000  0.300  0.700  0.000  0.000
  0.000  0.700  0.300  0.000  0.000
  0.000  0.000  0.000  0.000  1.000
  1.000  0.000  0.000  0.000  0.000
    occupations:
  0.996 -0.000 -0.000  0.000  0.000
 -0.000  0.994 -0.000  0.000  0.000
 -0.000 -0.000  0.994  0.000  0.000
  0.000  0.000  0.000  1.003 -0.000
  0.000  0.000  0.000 -0.000  0.985
atomic mag. moment =    -4.252476
atom    5   Tr[ns(na)] (up, down, total) =   4.97225  0.71977  5.69202
   spin  1
    eigenvalues:
  0.985  0.994  0.994  0.996  1.003
    eigenvectors:
  0.000  0.000  0.000  1.000  0.000
  0.000  0.356  0.644  0.000  0.000
  0.000  0.644  0.356  0.000  0.000
  0.000  0.000  0.000  0.000  1.000
  1.000  0.000  0.000  0.000  0.000
    occupations:
  0.996 -0.000 -0.000  0.000  0.000
 -0.000  0.994 -0.000  0.000  0.000
 -0.000 -0.000  0.994  0.000  0.000
  0.000  0.000  0.000  1.003 -0.000
  0.000  0.000  0.000 -0.000  0.985
   spin  2
    eigenvalues:
  0.066  0.114  0.147  0.147  0.246
    eigenvectors:
  0.000  1.000  0.000  0.000  0.000
  0.000  0.000  0.408  0.592  0.000
  0.000  0.000  0.592  0.408  0.000
  1.000  0.000  0.000  0.000  0.000
  0.000  0.000  0.000  0.000  1.000
    occupations:
  0.114 -0.000 -0.000  0.000  0.000
 -0.000  0.147 -0.000  0.000  0.000
 -0.000 -0.000  0.147  0.000  0.000
  0.000  0.000  0.000  0.066 -0.000
  0.000  0.000  0.000 -0.000  0.246
atomic mag. moment =     4.252480
atom    6   Tr[ns(na)] (up, down, total) =   0.72701  4.97323  5.70024
   spin  1
    eigenvalues:
  0.065  0.120  0.147  0.147  0.248
    eigenvectors:
  0.000  1.000  0.000  0.000  0.000
  0.000  0.000  0.348  0.652  0.000
  0.000  0.000  0.652  0.348  0.000
  1.000  0.000  0.000  0.000  0.000
  0.000  0.000  0.000  0.000  1.000
    occupations:
  0.120 -0.000 -0.000  0.000  0.000
 -0.000  0.147 -0.000  0.000  0.000
 -0.000 -0.000  0.147  0.000  0.000
  0.000  0.000  0.000  0.065 -0.000
  0.000  0.000  0.000 -0.000  0.248
   spin  2
    eigenvalues:
  0.985  0.994  0.994  0.998  1.002
    eigenvectors:
  0.000  0.000  0.000  1.000  0.000
  0.000  0.239  0.761  0.000  0.000
  0.000  0.761  0.239  0.000  0.000
  0.000  0.000  0.000  0.000  1.000
  1.000  0.000  0.000  0.000  0.000
    occupations:
  0.998 -0.000 -0.000  0.000  0.000
 -0.000  0.994 -0.000  0.000  0.000
 -0.000 -0.000  0.994  0.000  0.000
  0.000  0.000  0.000  1.002 -0.000
  0.000  0.000  0.000 -0.000  0.985
atomic mag. moment =    -4.246215
atom    7   Tr[ns(na)] (up, down, total) =   0.76733  4.96927  5.73660
   spin  1
    eigenvalues:
  0.063  0.139  0.148  0.148  0.269
    eigenvectors:
  0.000  1.000  0.000  0.000  0.000
  0.000  0.000  0.312  0.688  0.000
  0.000  0.000  0.688  0.312  0.000
  1.000  0.000  0.000  0.000  0.000
  0.000  0.000  0.000  0.000  1.000
    occupations:
  0.139 -0.000 -0.000  0.000  0.000
 -0.000  0.148 -0.000  0.000  0.000
 -0.000 -0.000  0.148  0.000  0.000
  0.000  0.000  0.000  0.063 -0.000
  0.000  0.000  0.000 -0.000  0.269
   spin  2
    eigenvalues:
  0.984  0.993  0.993  0.996  1.002
    eigenvectors:
  0.000  0.000  0.000  1.000  0.000
  0.000  0.267  0.733  0.000  0.000
  0.000  0.733  0.267  0.000  0.000
  0.000  0.000  0.000  0.000  1.000
  1.000  0.000  0.000  0.000  0.000
    occupations:
  0.996 -0.000 -0.000  0.000  0.000
 -0.000  0.993 -0.000  0.000  0.000
 -0.000 -0.000  0.993  0.000  0.000
  0.000  0.000  0.000  1.002 -0.000
  0.000  0.000  0.000 -0.000  0.984
atomic mag. moment =    -4.201942
atom    8   Tr[ns(na)] (up, down, total) =   0.74239  4.97076  5.71315
   spin  1
    eigenvalues:
  0.065  0.133  0.145  0.145  0.256
    eigenvectors:
  0.000  1.000  0.000  0.000  0.000
  0.000  0.000  0.352  0.648  0.000
  0.000  0.000  0.648  0.352  0.000
  1.000  0.000  0.000  0.000  0.000
  0.000  0.000  0.000  0.000  1.000
    occupations:
  0.133 -0.000 -0.000  0.000  0.000
 -0.000  0.145 -0.000  0.000  0.000
 -0.000 -0.000  0.145  0.000  0.000
  0.000  0.000  0.000  0.065 -0.000
  0.000  0.000  0.000 -0.000  0.256
   spin  2
    eigenvalues:
  0.984  0.994  0.994  0.997  1.002
    eigenvectors:
  0.000  0.000  0.000  1.000  0.000
  0.000  0.265  0.735  0.000  0.000
  0.000  0.735  0.265  0.000  0.000
  0.000  0.000  0.000  0.000  1.000
  1.000  0.000  0.000  0.000  0.000
    occupations:
  0.997 -0.000 -0.000  0.000  0.000
 -0.000  0.994 -0.000  0.000  0.000
 -0.000 -0.000  0.994  0.000  0.000
  0.000  0.000  0.000  1.002 -0.000
  0.000  0.000  0.000 -0.000  0.984
atomic mag. moment =    -4.228374
N of occupied +U levels =   45.684123
 --- exit write_ns ---

     Number of k-points >= 100: set verbosity='high' to print the bands.

     the Fermi energy is    15.2568 ev

!    total energy              =  -14694.00623505 Ry
     Harris-Foulkes estimate   =  -14694.00623196 Ry
     estimated scf accuracy    <       0.00000064 Ry

     total all-electron energy =   -626921.601957 Ry

     The total energy is the sum of the following terms:

     one-electron contribution =    -714.49995975 Ry
     hartree contribution      =     656.54191293 Ry
     xc contribution           =    -737.87059359 Ry
     ewald contribution        =   -2196.78933708 Ry
     Hubbard energy            =       0.45104933 Ry
     one-center paw contrib.   =  -11701.83930689 Ry

     total magnetization       =    -0.00 Bohr mag/cell
     absolute magnetization    =    37.22 Bohr mag/cell

     convergence has been achieved in  30 iterations

     Writing output data file mnau2.save/

     General routines

     Parallel routines

     Hubbard U routines

      30h

   This run was terminated on:  23:56:56  12Apr2019

   JOB DONE.