     Program PWSCF v.6.3MaX starts on 13Apr2019 at 10:55: 3

     R & G space division:  proc/nbgrp/npool/nimage =      32
     Waiting for input...
     Reading input from standard input

     Current dimensions of program PWSCF are:
     Max number of different atomic species (ntypx) = 10
     Max number of k-points (npk) =  40000
     Max angular momentum in pseudopotentials (lmaxx) =  3
               file Mn.pbe-spn-kjpaw_psl.0.3.1.UPF: wavefunction(s)  3P 3D renormalized
               file Mn.pbe-spn-kjpaw_psl.0.3.1.UPF: wavefunction(s)  3P 3D renormalized
               file Au.pbe-dn-kjpaw_psl.0.1.UPF: wavefunction(s)  6S 6P 5D renormalized

     bravais-lattice index     =            0
     lattice parameter (alat)  =       6.4153  a.u.
     unit-cell volume          =    2724.7774 (a.u.)^3
     number of atoms/cell      =           24
     number of atomic types    =            3
     number of electrons       =       296.00
     number of Kohn-Sham states=          178
     kinetic-energy cutoff     =      45.0000  Ry
     charge density cutoff     =     400.0000  Ry
     convergence threshold     =      1.0E-06
     mixing beta               =       0.1000
     number of iterations used =            8  plain     mixing
     Exchange-correlation      = SLA PW PBX PBC ( 1  4  3  4 0 0)

     celldm(1)=   6.415315  celldm(2)=   0.000000  celldm(3)=   0.000000
     celldm(4)=   0.000000  celldm(5)=   0.000000  celldm(6)=   0.000000

     crystal axes: (cart. coord. in units of alat)
               a(1) = (   1.000000   0.000000   0.000000 )
               a(2) = (   0.000000   1.000000   0.000000 )
               a(3) = (   0.000000   0.000000  10.319937 )

     reciprocal axes: (cart. coord. in units 2 pi/alat)
               b(1) = (  1.000000  0.000000  0.000000 )
               b(2) = (  0.000000  1.000000  0.000000 )
               b(3) = (  0.000000  0.000000  0.096900 )

     PseudoPot. # 1 for Mn read from file:
     ./pseudo/Mn.pbe-spn-kjpaw_psl.0.3.1.UPF
     MD5 check sum: 7b43a3fb0e93e198b8dd8488d8cf503e
     Pseudo is Projector augmented-wave + core cor, Zval = 15.0
     Generated using "atomic" code by A. Dal Corso v.5.0.99 svn rev. 10869
     Shape of augmentation charge: PSQ
     Using radial grid of 1187 points,  6 beta functions with:
                l(1) =   0
                l(2) =   0
                l(3) =   1
                l(4) =   1
                l(5) =   2
                l(6) =   2
     Q(r) pseudized with 0 coefficients

     PseudoPot. # 2 for Mn read from file:
     ./pseudo/Mn.pbe-spn-kjpaw_psl.0.3.1.UPF
     MD5 check sum: 7b43a3fb0e93e198b8dd8488d8cf503e
     Pseudo is Projector augmented-wave + core cor, Zval = 15.0
     Generated using "atomic" code by A. Dal Corso v.5.0.99 svn rev. 10869
     Shape of augmentation charge: PSQ
     Using radial grid of 1187 points,  6 beta functions with:
                l(1) =   0
                l(2) =   0
                l(3) =   1
                l(4) =   1
                l(5) =   2
                l(6) =   2
     Q(r) pseudized with 0 coefficients

     PseudoPot. # 3 for Au read from file:
     ./pseudo/Au.pbe-dn-kjpaw_psl.0.1.UPF
     MD5 check sum: be11e2e8e535ebe2b3ccfb4f88f554cb
     Pseudo is Projector augmented-wave + core cor, Zval = 11.0
     Generated using "atomic" code by A. Dal Corso v.5.0.2 svn rev. 9415
     Shape of augmentation charge: PSQ
     Using radial grid of 1279 points,  6 beta functions with:
                l(1) =   0
                l(2) =   0
                l(3) =   1
                l(4) =   1
                l(5) =   2
                l(6) =   2
     Q(r) pseudized with 0 coefficients

     atomic species   valence    mass     pseudopotential
        Mn1           15.00    54.93800     Mn( 1.00)
        Mn2           15.00    54.93800     Mn( 1.00)
        Au            11.00   196.96600     Au( 1.00)

     Starting magnetic structure
     atomic species   magnetization
        Mn1          0.800
        Mn2         -0.800
        Au           0.000

     Full LDA+U calculation (l_max = 2) with parameters (eV):
     U(  1) =   3.1200   J(  1) =   0.7000   B(  1) =   0.0803
     U(  2) =   3.1200   J(  2) =   0.7000   B(  2) =   0.0803

      8 Sym. Ops. (no inversion) found
          (note:  8 additional sym.ops. were found but ignored
           their fractional translations are incommensurate with FFT grid)

   Cartesian axes

     site n.     atom                  positions (alat units)
         1           Mn1 tau(   1) = (   0.0000000   0.0000000   0.0000000  )
         2           Mn1 tau(   2) = (   0.5000000   0.5000000   1.2899921  )
         3           Mn2 tau(   3) = (   0.0000000   0.0000000   2.5799843  )
         4           Mn1 tau(   4) = (   0.5000000   0.5000000   3.8699764  )
         5           Mn2 tau(   5) = (   0.0000000   0.0000000   5.1599686  )
         6           Mn2 tau(   6) = (   0.5000000   0.5000000   6.4499607  )
         7           Mn1 tau(   7) = (   0.0000000   0.0000000   7.7399528  )
         8           Mn2 tau(   8) = (   0.5000000   0.5000000   9.0299450  )
         9           Au  tau(   9) = (   0.5000000   0.5000000   0.4127975  )
        10           Au  tau(  10) = (   0.0000000   0.0000000   0.8771947  )
        11           Au  tau(  11) = (   0.0000000   0.0000000   1.7027896  )
        12           Au  tau(  12) = (   0.5000000   0.5000000   2.1671868  )
        13           Au  tau(  13) = (   0.5000000   0.5000000   2.9927818  )
        14           Au  tau(  14) = (   0.0000000   0.0000000   3.4571789  )
        15           Au  tau(  15) = (   0.0000000   0.0000000   4.2827739  )
        16           Au  tau(  16) = (   0.5000000   0.5000000   4.7471711  )
        17           Au  tau(  17) = (   0.5000000   0.5000000   5.5727660  )
        18           Au  tau(  18) = (   0.0000000   0.0000000   6.0371632  )
        19           Au  tau(  19) = (   0.0000000   0.0000000   6.8627582  )
        20           Au  tau(  20) = (   0.5000000   0.5000000   7.3271553  )
        21           Au  tau(  21) = (   0.5000000   0.5000000   8.1527503  )
        22           Au  tau(  22) = (   0.0000000   0.0000000   8.6171475  )
        23           Au  tau(  23) = (   0.0000000   0.0000000   9.4427424  )
        24           Au  tau(  24) = (   0.5000000   0.5000000   9.9071396  )

     number of k points=   135 (tetrahedron method)

     Number of k-points >= 100: set verbosity='high' to print them.

     Check: negative/imaginary core charge=   -0.000006    0.000000

     Initial potential from superposition of free atoms

     starting charge  295.99426, renormalised to  296.00000
     Number of +U iterations with fixed ns =  0
     Starting occupations:
 --- enter write_ns ---
 LDA+U parameters:
U(  1) =   3.1200   J(  1) =   0.7000   B(  1) =   0.0803
U(  2) =   3.1200   J(  2) =   0.7000   B(  2) =   0.0803
atom    1   Tr[ns(na)] (up, down, total) =   5.00000  0.00000  5.00000
   spin  1
    eigenvalues:
  1.000  1.000  1.000  1.000  1.000
    eigenvectors:
  1.000  0.000  0.000  0.000  0.000
  0.000  1.000  0.000  0.000  0.000
  0.000  0.000  1.000  0.000  0.000
  0.000  0.000  0.000  1.000  0.000
  0.000  0.000  0.000  0.000  1.000
    occupations:
  1.000  0.000  0.000  0.000  0.000
  0.000  1.000  0.000  0.000  0.000
  0.000  0.000  1.000  0.000  0.000
  0.000  0.000  0.000  1.000  0.000
  0.000  0.000  0.000  0.000  1.000
   spin  2
    eigenvalues:
  0.000  0.000  0.000  0.000  0.000
    eigenvectors:
  1.000  0.000  0.000  0.000  0.000
  0.000  1.000  0.000  0.000  0.000
  0.000  0.000  1.000  0.000  0.000
  0.000  0.000  0.000  1.000  0.000
  0.000  0.000  0.000  0.000  1.000
    occupations:
  0.000  0.000  0.000  0.000  0.000
  0.000  0.000  0.000  0.000  0.000
  0.000  0.000  0.000  0.000  0.000
  0.000  0.000  0.000  0.000  0.000
  0.000  0.000  0.000  0.000  0.000
atomic mag. moment =     5.000000
atom    2   Tr[ns(na)] (up, down, total) =   5.00000  0.00000  5.00000
   spin  1
    eigenvalues:
  1.000  1.000  1.000  1.000  1.000
    eigenvectors:
  1.000  0.000  0.000  0.000  0.000
  0.000  1.000  0.000  0.000  0.000
  0.000  0.000  1.000  0.000  0.000
  0.000  0.000  0.000  1.000  0.000
  0.000  0.000  0.000  0.000  1.000
    occupations:
  1.000  0.000  0.000  0.000  0.000
  0.000  1.000  0.000  0.000  0.000
  0.000  0.000  1.000  0.000  0.000
  0.000  0.000  0.000  1.000  0.000
  0.000  0.000  0.000  0.000  1.000
   spin  2
    eigenvalues:
  0.000  0.000  0.000  0.000  0.000
    eigenvectors:
  1.000  0.000  0.000  0.000  0.000
  0.000  1.000  0.000  0.000  0.000
  0.000  0.000  1.000  0.000  0.000
  0.000  0.000  0.000  1.000  0.000
  0.000  0.000  0.000  0.000  1.000
    occupations:
  0.000  0.000  0.000  0.000  0.000
  0.000  0.000  0.000  0.000  0.000
  0.000  0.000  0.000  0.000  0.000
  0.000  0.000  0.000  0.000  0.000
  0.000  0.000  0.000  0.000  0.000
atomic mag. moment =     5.000000
atom    3   Tr[ns(na)] (up, down, total) =   0.00000  5.00000  5.00000
   spin  1
    eigenvalues:
  0.000  0.000  0.000  0.000  0.000
    eigenvectors:
  1.000  0.000  0.000  0.000  0.000
  0.000  1.000  0.000  0.000  0.000
  0.000  0.000  1.000  0.000  0.000
  0.000  0.000  0.000  1.000  0.000
  0.000  0.000  0.000  0.000  1.000
    occupations:
  0.000  0.000  0.000  0.000  0.000
  0.000  0.000  0.000  0.000  0.000
  0.000  0.000  0.000  0.000  0.000
  0.000  0.000  0.000  0.000  0.000
  0.000  0.000  0.000  0.000  0.000
   spin  2
    eigenvalues:
  1.000  1.000  1.000  1.000  1.000
    eigenvectors:
  1.000  0.000  0.000  0.000  0.000
  0.000  1.000  0.000  0.000  0.000
  0.000  0.000  1.000  0.000  0.000
  0.000  0.000  0.000  1.000  0.000
  0.000  0.000  0.000  0.000  1.000
    occupations:
  1.000  0.000  0.000  0.000  0.000
  0.000  1.000  0.000  0.000  0.000
  0.000  0.000  1.000  0.000  0.000
  0.000  0.000  0.000  1.000  0.000
  0.000  0.000  0.000  0.000  1.000
atomic mag. moment =    -5.000000
atom    4   Tr[ns(na)] (up, down, total) =   5.00000  0.00000  5.00000
   spin  1
    eigenvalues:
  1.000  1.000  1.000  1.000  1.000
    eigenvectors:
  1.000  0.000  0.000  0.000  0.000
  0.000  1.000  0.000  0.000  0.000
  0.000  0.000  1.000  0.000  0.000
  0.000  0.000  0.000  1.000  0.000
  0.000  0.000  0.000  0.000  1.000
    occupations:
  1.000  0.000  0.000  0.000  0.000
  0.000  1.000  0.000  0.000  0.000
  0.000  0.000  1.000  0.000  0.000
  0.000  0.000  0.000  1.000  0.000
  0.000  0.000  0.000  0.000  1.000
   spin  2
    eigenvalues:
  0.000  0.000  0.000  0.000  0.000
    eigenvectors:
  1.000  0.000  0.000  0.000  0.000
  0.000  1.000  0.000  0.000  0.000
  0.000  0.000  1.000  0.000  0.000
  0.000  0.000  0.000  1.000  0.000
  0.000  0.000  0.000  0.000  1.000
    occupations:
  0.000  0.000  0.000  0.000  0.000
  0.000  0.000  0.000  0.000  0.000
  0.000  0.000  0.000  0.000  0.000
  0.000  0.000  0.000  0.000  0.000
  0.000  0.000  0.000  0.000  0.000
atomic mag. moment =     5.000000
atom    5   Tr[ns(na)] (up, down, total) =   0.00000  5.00000  5.00000
   spin  1
    eigenvalues:
  0.000  0.000  0.000  0.000  0.000
    eigenvectors:
  1.000  0.000  0.000  0.000  0.000
[...]
   spin  2
    eigenvalues:
  0.053  0.073  0.080  0.080  0.124
    eigenvectors:
  0.000  1.000  0.000  0.000  0.000
  0.000  0.000  0.340  0.660  0.000
  0.000  0.000  0.660  0.340  0.000
  1.000  0.000  0.000  0.000  0.000
  0.000  0.000  0.000  0.000  1.000
    occupations:
  0.073 -0.000 -0.000  0.000  0.000
 -0.000  0.080 -0.000  0.000  0.000
 -0.000 -0.000  0.080  0.000  0.000
  0.000  0.000  0.000  0.053 -0.000
  0.000  0.000  0.000 -0.000  0.124
atomic mag. moment =     4.607712
atom    5   Tr[ns(na)] (up, down, total) =   0.40895  5.01749  5.42644
   spin  1
    eigenvalues:
  0.053  0.073  0.082  0.082  0.119
    eigenvectors:
  0.000  1.000  0.000  0.000  0.000
  0.000  0.000  0.483  0.517  0.000
  0.000  0.000  0.517  0.483  0.000
  1.000  0.000  0.000  0.000  0.000
  0.000  0.000  0.000  0.000  1.000
    occupations:
  0.073 -0.000 -0.000  0.000  0.000
 -0.000  0.082 -0.000  0.000  0.000
 -0.000 -0.000  0.082  0.000  0.000
  0.000  0.000  0.000  0.053 -0.000
  0.000  0.000  0.000 -0.000  0.119
   spin  2
    eigenvalues:
  1.003  1.003  1.003  1.004  1.004
    eigenvectors:
  0.000  0.000  0.000  1.000  0.000
  0.000  0.305  0.695  0.000  0.000
  0.000  0.695  0.305  0.000  0.000
  0.000  0.000  0.000  0.000  1.000
  1.000  0.000  0.000  0.000  0.000
    occupations:
  1.004 -0.000 -0.000  0.000  0.000
 -0.000  1.003 -0.000  0.000  0.000
 -0.000 -0.000  1.003  0.000  0.000
  0.000  0.000  0.000  1.004 -0.000
  0.000  0.000  0.000 -0.000  1.003
atomic mag. moment =    -4.608537
atom    6   Tr[ns(na)] (up, down, total) =   0.40808  5.01759  5.42567
   spin  1
    eigenvalues:
  0.053  0.073  0.082  0.082  0.119
    eigenvectors:
  0.000  1.000  0.000  0.000  0.000
  0.000  0.000  0.388  0.612  0.000
  0.000  0.000  0.612  0.388  0.000
  1.000  0.000  0.000  0.000  0.000
  0.000  0.000  0.000  0.000  1.000
    occupations:
  0.073 -0.000 -0.000  0.000  0.000
 -0.000  0.082 -0.000  0.000  0.000
 -0.000 -0.000  0.082  0.000  0.000
  0.000  0.000  0.000  0.053 -0.000
  0.000  0.000  0.000 -0.000  0.119
   spin  2
    eigenvalues:
  1.003  1.003  1.003  1.004  1.004
    eigenvectors:
  0.000  0.000  0.000  1.000  0.000
  0.000  0.280  0.720  0.000  0.000
  0.000  0.720  0.280  0.000  0.000
  0.000  0.000  0.000  0.000  1.000
  1.000  0.000  0.000  0.000  0.000
    occupations:
  1.004 -0.000 -0.000  0.000  0.000
 -0.000  1.003 -0.000  0.000  0.000
 -0.000 -0.000  1.003  0.000  0.000
  0.000  0.000  0.000  1.004 -0.000
  0.000  0.000  0.000 -0.000  1.003
atomic mag. moment =    -4.609515
atom    7   Tr[ns(na)] (up, down, total) =   5.01736  0.40936  5.42672
   spin  1
    eigenvalues:
  1.003  1.003  1.003  1.004  1.004
    eigenvectors:
  0.000  0.000  0.000  1.000  0.000
  0.000  0.279  0.721  0.000  0.000
  0.000  0.721  0.279  0.000  0.000
  0.000  0.000  0.000  0.000  1.000
  1.000  0.000  0.000  0.000  0.000
    occupations:
  1.004 -0.000 -0.000  0.000  0.000
 -0.000  1.003 -0.000  0.000  0.000
 -0.000 -0.000  1.003  0.000  0.000
  0.000  0.000  0.000  1.004 -0.000
  0.000  0.000  0.000 -0.000  1.003
   spin  2
    eigenvalues:
  0.053  0.073  0.080  0.080  0.124
    eigenvectors:
  0.000  1.000  0.000  0.000  0.000
  0.000  0.000  0.437  0.563  0.000
  0.000  0.000  0.563  0.437  0.000
  1.000  0.000  0.000  0.000  0.000
  0.000  0.000  0.000  0.000  1.000
    occupations:
  0.073 -0.000 -0.000  0.000  0.000
 -0.000  0.080 -0.000  0.000  0.000
 -0.000 -0.000  0.080  0.000  0.000
  0.000  0.000  0.000  0.053 -0.000
  0.000  0.000  0.000 -0.000  0.124
atomic mag. moment =     4.607997
atom    8   Tr[ns(na)] (up, down, total) =   0.40991  5.01731  5.42722
   spin  1
    eigenvalues:
  0.053  0.073  0.080  0.080  0.124
    eigenvectors:
  0.000  1.000  0.000  0.000  0.000
  0.000  0.000  0.424  0.576  0.000
  0.000  0.000  0.576  0.424  0.000
  1.000  0.000  0.000  0.000  0.000
  0.000  0.000  0.000  0.000  1.000
    occupations:
  0.073 -0.000 -0.000  0.000  0.000
 -0.000  0.080 -0.000  0.000  0.000
 -0.000 -0.000  0.080  0.000  0.000
  0.000  0.000  0.000  0.053 -0.000
  0.000  0.000  0.000 -0.000  0.124
   spin  2
    eigenvalues:
  1.003  1.003  1.003  1.004  1.004
    eigenvectors:
  0.000  0.000  0.000  1.000  0.000
  0.000  0.334  0.666  0.000  0.000
  0.000  0.666  0.334  0.000  0.000
  0.000  0.000  0.000  0.000  1.000
  1.000  0.000  0.000  0.000  0.000
    occupations:
  1.004 -0.000 -0.000  0.000  0.000
 -0.000  1.003 -0.000  0.000  0.000
 -0.000 -0.000  1.003  0.000  0.000
  0.000  0.000  0.000  1.004 -0.000
  0.000  0.000  0.000 -0.000  1.003
atomic mag. moment =    -4.607396
N of occupied +U levels =   43.410449
 --- exit write_ns ---

     total energy              =  -14687.28059951 Ry
     Harris-Foulkes estimate   =  -14685.82178638 Ry
     estimated scf accuracy    <      11.57122900 Ry

     total magnetization       =     0.00 Bohr mag/cell
     absolute magnetization    =    41.58 Bohr mag/cell

     iteration #  2     ecut=    45.00 Ry     beta= 0.10
     Davidson diagonalization with overlap
     ethr =  3.91E-03,  avg # of iterations =  1.0

[...]

     total energy              =  -14694.00106711 Ry
     Harris-Foulkes estimate   =  -14694.00106715 Ry
     estimated scf accuracy    <       0.00001029 Ry

[...]

     iteration # 48     ecut=    45.00 Ry     beta= 0.10
     Davidson diagonalization with overlap
     ethr =  7.97E-10,  avg # of iterations =  1.0

     Magnetic moment per site:
     atom:    1    charge:   13.5464    magn:    4.2420    constr:    0.0000
     atom:    2    charge:   13.5466    magn:    4.2418    constr:    0.0000
     atom:    3    charge:   13.5444    magn:   -4.2580    constr:    0.0000
     atom:    4    charge:   13.5446    magn:    4.2581    constr:    0.0000
     atom:    5    charge:   13.5465    magn:   -4.2417    constr:    0.0000
     atom:    6    charge:   13.5466    magn:   -4.2420    constr:    0.0000
     atom:    7    charge:   13.5444    magn:    4.2580    constr:    0.0000
     atom:    8    charge:   13.5445    magn:   -4.2581    constr:    0.0000
     atom:    9    charge:    9.1228    magn:    0.0352    constr:    0.0000
     atom:   10    charge:    9.1229    magn:    0.0351    constr:    0.0000
     atom:   11    charge:    9.1239    magn:    0.0418    constr:    0.0000
     atom:   12    charge:    9.1235    magn:   -0.0407    constr:    0.0000
     atom:   13    charge:    9.1241    magn:   -0.0418    constr:    0.0000
     atom:   14    charge:    9.1242    magn:    0.0419    constr:    0.0000
     atom:   15    charge:    9.1236    magn:    0.0408    constr:    0.0000
     atom:   16    charge:    9.1238    magn:   -0.0417    constr:    0.0000
     atom:   17    charge:    9.1228    magn:   -0.0351    constr:    0.0000
     atom:   18    charge:    9.1230    magn:   -0.0352    constr:    0.0000
     atom:   19    charge:    9.1239    magn:   -0.0418    constr:    0.0000
     atom:   20    charge:    9.1235    magn:    0.0407    constr:    0.0000
     atom:   21    charge:    9.1241    magn:    0.0419    constr:    0.0000
     atom:   22    charge:    9.1242    magn:   -0.0419    constr:    0.0000
     atom:   23    charge:    9.1236    magn:   -0.0408    constr:    0.0000
     atom:   24    charge:    9.1237    magn:    0.0418    constr:    0.0000

     End of self-consistent calculation
 --- enter write_ns ---
 LDA+U parameters:
U(  1) =   3.1200   J(  1) =   0.7000   B(  1) =   0.0803
U(  2) =   3.1200   J(  2) =   0.7000   B(  2) =   0.0803
atom    1   Tr[ns(na)] (up, down, total) =   4.97277  0.73096  5.70373
   spin  1
    eigenvalues:
  0.985  0.994  0.994  0.997  1.002
    eigenvectors:
  0.000  0.000  0.000  1.000  0.000
  0.000  0.282  0.718  0.000  0.000
  0.000  0.718  0.282  0.000  0.000
  0.000  0.000  0.000  0.000  1.000
  1.000  0.000  0.000  0.000  0.000
    occupations:
  0.997 -0.000 -0.000  0.000  0.000
 -0.000  0.994 -0.000  0.000  0.000
 -0.000 -0.000  0.994  0.000  0.000
  0.000  0.000  0.000  1.002 -0.000
  0.000  0.000  0.000 -0.000  0.985
   spin  2
    eigenvalues:
  0.065  0.121  0.147  0.147  0.250
    eigenvectors:
  0.000  1.000  0.000  0.000  0.000
  0.000  0.000  0.309  0.691  0.000
  0.000  0.000  0.691  0.309  0.000
  1.000  0.000  0.000  0.000  0.000
  0.000  0.000  0.000  0.000  1.000
    occupations:
  0.121 -0.000 -0.000  0.000  0.000
 -0.000  0.147 -0.000  0.000  0.000
 -0.000 -0.000  0.147  0.000  0.000
  0.000  0.000  0.000  0.065 -0.000
  0.000  0.000  0.000 -0.000  0.250
atomic mag. moment =     4.241809
atom    2   Tr[ns(na)] (up, down, total) =   4.97273  0.73117  5.70390
   spin  1
    eigenvalues:
  0.985  0.994  0.994  0.997  1.002
    eigenvectors:
  0.000  0.000  0.000  1.000  0.000
  0.000  0.270  0.730  0.000  0.000
  0.000  0.730  0.270  0.000  0.000
  0.000  0.000  0.000  0.000  1.000
  1.000  0.000  0.000  0.000  0.000
    occupations:
  0.997 -0.000 -0.000  0.000  0.000
 -0.000  0.994 -0.000  0.000  0.000
 -0.000 -0.000  0.994  0.000  0.000
  0.000  0.000  0.000  1.002 -0.000
  0.000  0.000  0.000 -0.000  0.985
   spin  2
    eigenvalues:
  0.065  0.121  0.147  0.147  0.251
    eigenvectors:
  0.000  1.000  0.000  0.000  0.000
  0.000  0.000  0.318  0.682  0.000
  0.000  0.000  0.682  0.318  0.000
  1.000  0.000  0.000  0.000  0.000
  0.000  0.000  0.000  0.000  1.000
    occupations:
  0.121 -0.000 -0.000  0.000  0.000
 -0.000  0.147 -0.000  0.000  0.000
 -0.000 -0.000  0.147  0.000  0.000
  0.000  0.000  0.000  0.065 -0.000
  0.000  0.000  0.000 -0.000  0.251
atomic mag. moment =     4.241561
atom    3   Tr[ns(na)] (up, down, total) =   0.71880  4.97266  5.69146
   spin  1
    eigenvalues:
  0.065  0.118  0.145  0.145  0.245
    eigenvectors:
  0.000  1.000  0.000  0.000  0.000
  0.000  0.000  0.389  0.611  0.000
  0.000  0.000  0.611  0.389  0.000
  1.000  0.000  0.000  0.000  0.000
  0.000  0.000  0.000  0.000  1.000
    occupations:
  0.118 -0.000 -0.000  0.000  0.000
 -0.000  0.145 -0.000  0.000  0.000
 -0.000 -0.000  0.145  0.000  0.000
  0.000  0.000  0.000  0.065 -0.000
  0.000  0.000  0.000 -0.000  0.245
   spin  2
    eigenvalues:
  0.985  0.994  0.994  0.997  1.003
    eigenvectors:
  0.000  0.000  0.000  1.000  0.000
  0.000  0.315  0.685  0.000  0.000
  0.000  0.685  0.315  0.000  0.000
  0.000  0.000  0.000  0.000  1.000
  1.000  0.000  0.000  0.000  0.000
    occupations:
  0.997 -0.000 -0.000  0.000  0.000
 -0.000  0.994 -0.000  0.000  0.000
 -0.000 -0.000  0.994  0.000  0.000
  0.000  0.000  0.000  1.003 -0.000
  0.000  0.000  0.000 -0.000  0.985
atomic mag. moment =    -4.253855
atom    4   Tr[ns(na)] (up, down, total) =   4.97268  0.71879  5.69147
   spin  1
    eigenvalues:
  0.985  0.994  0.994  0.997  1.003
    eigenvectors:
  0.000  0.000  0.000  1.000  0.000
  0.000  0.308  0.692  0.000  0.000
  0.000  0.692  0.308  0.000  0.000
  0.000  0.000  0.000  0.000  1.000
  1.000  0.000  0.000  0.000  0.000
    occupations:
  0.997 -0.000 -0.000  0.000  0.000
 -0.000  0.994 -0.000  0.000  0.000
 -0.000 -0.000  0.994  0.000  0.000
  0.000  0.000  0.000  1.003 -0.000
  0.000  0.000  0.000 -0.000  0.985
   spin  2
    eigenvalues:
  0.065  0.118  0.145  0.145  0.245
    eigenvectors:
  0.000  1.000  0.000  0.000  0.000
  0.000  0.000  0.282  0.718  0.000
  0.000  0.000  0.718  0.282  0.000
  1.000  0.000  0.000  0.000  0.000
  0.000  0.000  0.000  0.000  1.000
    occupations:
  0.118 -0.000 -0.000  0.000  0.000
 -0.000  0.145 -0.000  0.000  0.000
 -0.000 -0.000  0.145  0.000  0.000
  0.000  0.000  0.000  0.065 -0.000
  0.000  0.000  0.000 -0.000  0.245
atomic mag. moment =     4.253894
atom    5   Tr[ns(na)] (up, down, total) =   0.73127  4.97273  5.70400
   spin  1
    eigenvalues:
  0.065  0.121  0.147  0.147  0.251
    eigenvectors:
  0.000  1.000  0.000  0.000  0.000
  0.000  0.000  0.323  0.677  0.000
  0.000  0.000  0.677  0.323  0.000
  1.000  0.000  0.000  0.000  0.000
  0.000  0.000  0.000  0.000  1.000
    occupations:
  0.121 -0.000 -0.000  0.000  0.000
 -0.000  0.147 -0.000  0.000  0.000
 -0.000 -0.000  0.147  0.000  0.000
  0.000  0.000  0.000  0.065 -0.000
  0.000  0.000  0.000 -0.000  0.251
   spin  2
    eigenvalues:
  0.985  0.994  0.994  0.997  1.002
    eigenvectors:
  0.000  0.000  0.000  1.000  0.000
  0.000  0.273  0.727  0.000  0.000
  0.000  0.727  0.273  0.000  0.000
  0.000  0.000  0.000  0.000  1.000
  1.000  0.000  0.000  0.000  0.000
    occupations:
  0.997 -0.000 -0.000  0.000  0.000
 -0.000  0.994 -0.000  0.000  0.000
 -0.000 -0.000  0.994  0.000  0.000
  0.000  0.000  0.000  1.002 -0.000
  0.000  0.000  0.000 -0.000  0.985
atomic mag. moment =    -4.241459
atom    6   Tr[ns(na)] (up, down, total) =   0.73099  4.97279  5.70378
   spin  1
    eigenvalues:
  0.065  0.121  0.147  0.147  0.250
    eigenvectors:
  0.000  1.000  0.000  0.000  0.000
  0.000  0.000  0.268  0.732  0.000
  0.000  0.000  0.732  0.268  0.000
  1.000  0.000  0.000  0.000  0.000
  0.000  0.000  0.000  0.000  1.000
    occupations:
  0.121 -0.000 -0.000  0.000  0.000
 -0.000  0.147 -0.000  0.000  0.000
 -0.000 -0.000  0.147  0.000  0.000
  0.000  0.000  0.000  0.065 -0.000
  0.000  0.000  0.000 -0.000  0.250
   spin  2
    eigenvalues:
  0.985  0.994  0.994  0.997  1.002
    eigenvectors:
  0.000  0.000  0.000  1.000  0.000
  0.000  0.286  0.714  0.000  0.000
  0.000  0.714  0.286  0.000  0.000
  0.000  0.000  0.000  0.000  1.000
  1.000  0.000  0.000  0.000  0.000
    occupations:
  0.997 -0.000 -0.000  0.000  0.000
 -0.000  0.994 -0.000  0.000  0.000
 -0.000 -0.000  0.994  0.000  0.000
  0.000  0.000  0.000  1.002 -0.000
  0.000  0.000  0.000 -0.000  0.985
atomic mag. moment =    -4.241797
atom    7   Tr[ns(na)] (up, down, total) =   4.97266  0.71872  5.69138
   spin  1
    eigenvalues:
  0.985  0.994  0.994  0.997  1.003
    eigenvectors:
  0.000  0.000  0.000  1.000  0.000
  0.000  0.380  0.620  0.000  0.000
  0.000  0.620  0.380  0.000  0.000
  0.000  0.000  0.000  0.000  1.000
  1.000  0.000  0.000  0.000  0.000
    occupations:
  0.997 -0.000 -0.000  0.000  0.000
 -0.000  0.994 -0.000  0.000  0.000
 -0.000 -0.000  0.994  0.000  0.000
  0.000  0.000  0.000  1.003 -0.000
  0.000  0.000  0.000 -0.000  0.985
   spin  2
    eigenvalues:
  0.065  0.118  0.145  0.145  0.245
    eigenvectors:
  0.000  1.000  0.000  0.000  0.000
  0.000  0.000  0.296  0.704  0.000
  0.000  0.000  0.704  0.296  0.000
  1.000  0.000  0.000  0.000  0.000
  0.000  0.000  0.000  0.000  1.000
    occupations:
  0.118 -0.000 -0.000  0.000  0.000
 -0.000  0.145 -0.000  0.000  0.000
 -0.000 -0.000  0.145  0.000  0.000
  0.000  0.000  0.000  0.065 -0.000
  0.000  0.000  0.000 -0.000  0.245
atomic mag. moment =     4.253939
atom    8   Tr[ns(na)] (up, down, total) =   0.71865  4.97268  5.69133
   spin  1
    eigenvalues:
  0.065  0.118  0.145  0.145  0.245
    eigenvectors:
  0.000  1.000  0.000  0.000  0.000
  0.000  0.000  0.312  0.688  0.000
  0.000  0.000  0.688  0.312  0.000
  1.000  0.000  0.000  0.000  0.000
  0.000  0.000  0.000  0.000  1.000
    occupations:
  0.118 -0.000 -0.000  0.000  0.000
 -0.000  0.145 -0.000  0.000  0.000
 -0.000 -0.000  0.145  0.000  0.000
  0.000  0.000  0.000  0.065 -0.000
  0.000  0.000  0.000 -0.000  0.245
   spin  2
    eigenvalues:
  0.985  0.994  0.994  0.997  1.003
    eigenvectors:
  0.000  0.000  0.000  1.000  0.000
  0.000  0.355  0.645  0.000  0.000
  0.000  0.645  0.355  0.000  0.000
  0.000  0.000  0.000  0.000  1.000
  1.000  0.000  0.000  0.000  0.000
    occupations:
  0.997 -0.000 -0.000  0.000  0.000
 -0.000  0.994 -0.000  0.000  0.000
 -0.000 -0.000  0.994  0.000  0.000
  0.000  0.000  0.000  1.003 -0.000
  0.000  0.000  0.000 -0.000  0.985
atomic mag. moment =    -4.254030
N of occupied +U levels =   45.581050
 --- exit write_ns ---

     Number of k-points >= 100: set verbosity='high' to print the bands.

     the Fermi energy is    15.2961 ev

!    total energy              =  -14694.00106721 Ry
     Harris-Foulkes estimate   =  -14694.00106725 Ry
     estimated scf accuracy    <       0.00000088 Ry

     total all-electron energy =   -626921.596789 Ry

     The total energy is the sum of the following terms:

     one-electron contribution =    -714.34685784 Ry
     hartree contribution      =     656.42914487 Ry
     xc contribution           =    -737.88724815 Ry
     ewald contribution        =   -2196.78933708 Ry
     Hubbard energy            =       0.44414149 Ry
     one-center paw contrib.   =  -11701.85091050 Ry

     total magnetization       =     0.00 Bohr mag/cell
     absolute magnetization    =    37.37 Bohr mag/cell

     convergence has been achieved in  48 iterations

     Writing output data file mnau2.save/

     General routines

     Parallel routines

     Hubbard U routines

       7h

   This run was terminated on:  17: 2:52  13Apr2019

   JOB DONE.