     Program PWSCF v.6.3MaX starts on 11Apr2019 at  2: 1:55

     R & G space division:  proc/nbgrp/npool/nimage =      32
     Waiting for input...
     Reading input from standard input

     Current dimensions of program PWSCF are:
     Max number of different atomic species (ntypx) = 10
     Max number of k-points (npk) =  40000
     Max angular momentum in pseudopotentials (lmaxx) =  3
               file Mn.pbe-spn-kjpaw_psl.0.3.1.UPF: wavefunction(s)  3P 3D renormalized
               file Mn.pbe-spn-kjpaw_psl.0.3.1.UPF: wavefunction(s)  3P 3D renormalized
               file Au.pbe-dn-kjpaw_psl.0.1.UPF: wavefunction(s)  6S 6P 5D renormalized

     bravais-lattice index     =            0
     lattice parameter (alat)  =       6.4153  a.u.
     unit-cell volume          =    2724.7774 (a.u.)^3
     number of atoms/cell      =           24
     number of atomic types    =            3
     number of electrons       =       296.00
     number of Kohn-Sham states=          178
     kinetic-energy cutoff     =      45.0000  Ry
     charge density cutoff     =     400.0000  Ry
     convergence threshold     =      1.0E-06
     mixing beta               =       0.1000
     number of iterations used =            8  plain     mixing
     Exchange-correlation      = SLA PW PBX PBC ( 1  4  3  4 0 0)

     celldm(1)=   6.415315  celldm(2)=   0.000000  celldm(3)=   0.000000
     celldm(4)=   0.000000  celldm(5)=   0.000000  celldm(6)=   0.000000

     crystal axes: (cart. coord. in units of alat)
               a(1) = (   1.000000   0.000000   0.000000 )
               a(2) = (   0.000000   1.000000   0.000000 )
               a(3) = (   0.000000   0.000000  10.319937 )

     reciprocal axes: (cart. coord. in units 2 pi/alat)
               b(1) = (  1.000000  0.000000  0.000000 )
               b(2) = (  0.000000  1.000000  0.000000 )
               b(3) = (  0.000000  0.000000  0.096900 )

     PseudoPot. # 1 for Mn read from file:
     ./pseudo/Mn.pbe-spn-kjpaw_psl.0.3.1.UPF
     MD5 check sum: 7b43a3fb0e93e198b8dd8488d8cf503e
     Pseudo is Projector augmented-wave + core cor, Zval = 15.0
     Generated using "atomic" code by A. Dal Corso v.5.0.99 svn rev. 10869
     Shape of augmentation charge: PSQ
     Using radial grid of 1187 points,  6 beta functions with:
                l(1) =   0
                l(2) =   0
                l(3) =   1
                l(4) =   1
                l(5) =   2
                l(6) =   2
     Q(r) pseudized with 0 coefficients

     PseudoPot. # 2 for Mn read from file:
     ./pseudo/Mn.pbe-spn-kjpaw_psl.0.3.1.UPF
     MD5 check sum: 7b43a3fb0e93e198b8dd8488d8cf503e
     Pseudo is Projector augmented-wave + core cor, Zval = 15.0
     Generated using "atomic" code by A. Dal Corso v.5.0.99 svn rev. 10869
     Shape of augmentation charge: PSQ
     Using radial grid of 1187 points,  6 beta functions with:
                l(1) =   0
                l(2) =   0
                l(3) =   1
                l(4) =   1
                l(5) =   2
                l(6) =   2
     Q(r) pseudized with 0 coefficients

     PseudoPot. # 3 for Au read from file:
     ./pseudo/Au.pbe-dn-kjpaw_psl.0.1.UPF
     MD5 check sum: be11e2e8e535ebe2b3ccfb4f88f554cb
     Pseudo is Projector augmented-wave + core cor, Zval = 11.0
     Generated using "atomic" code by A. Dal Corso v.5.0.2 svn rev. 9415
     Shape of augmentation charge: PSQ
     Using radial grid of 1279 points,  6 beta functions with:
                l(1) =   0
                l(2) =   0
                l(3) =   1
                l(4) =   1
                l(5) =   2
                l(6) =   2
     Q(r) pseudized with 0 coefficients

     atomic species   valence    mass     pseudopotential
        Mn1           15.00    54.93800     Mn( 1.00)
        Mn2           15.00    54.93800     Mn( 1.00)
        Au            11.00   196.96600     Au( 1.00)

     Starting magnetic structure
     atomic species   magnetization
        Mn1          0.800
        Mn2         -0.800
        Au           0.000

     Full LDA+U calculation (l_max = 2) with parameters (eV):
     U(  1) =   3.1200   J(  1) =   0.7000   B(  1) =   0.0803
     U(  2) =   3.1200   J(  2) =   0.7000   B(  2) =   0.0803

      8 Sym. Ops. (no inversion) found

   Cartesian axes

     site n.     atom                  positions (alat units)
         1           Mn1 tau(   1) = (   0.0000000   0.0000000   0.0000000  )
         2           Mn1 tau(   2) = (   0.5000000   0.5000000   1.2899921  )
         3           Mn1 tau(   3) = (   0.0000000   0.0000000   2.5799843  )
         4           Mn1 tau(   4) = (   0.5000000   0.5000000   3.8699764  )
         5           Mn1 tau(   5) = (   0.0000000   0.0000000   5.1599686  )
         6           Mn1 tau(   6) = (   0.5000000   0.5000000   6.4499607  )
         7           Mn2 tau(   7) = (   0.0000000   0.0000000   7.7399528  )
         8           Mn2 tau(   8) = (   0.5000000   0.5000000   9.0299450  )
         9           Au  tau(   9) = (   0.5000000   0.5000000   0.4127975  )
        10           Au  tau(  10) = (   0.0000000   0.0000000   0.8771947  )
        11           Au  tau(  11) = (   0.0000000   0.0000000   1.7027896  )
        12           Au  tau(  12) = (   0.5000000   0.5000000   2.1671868  )
        13           Au  tau(  13) = (   0.5000000   0.5000000   2.9927818  )
        14           Au  tau(  14) = (   0.0000000   0.0000000   3.4571789  )
        15           Au  tau(  15) = (   0.0000000   0.0000000   4.2827739  )
        16           Au  tau(  16) = (   0.5000000   0.5000000   4.7471711  )
        17           Au  tau(  17) = (   0.5000000   0.5000000   5.5727660  )
        18           Au  tau(  18) = (   0.0000000   0.0000000   6.0371632  )
        19           Au  tau(  19) = (   0.0000000   0.0000000   6.8627582  )
        20           Au  tau(  20) = (   0.5000000   0.5000000   7.3271553  )
        21           Au  tau(  21) = (   0.5000000   0.5000000   8.1527503  )
        22           Au  tau(  22) = (   0.0000000   0.0000000   8.6171475  )
        23           Au  tau(  23) = (   0.0000000   0.0000000   9.4427424  )
        24           Au  tau(  24) = (   0.5000000   0.5000000   9.9071396  )

     number of k points=   135 (tetrahedron method)

     Number of k-points >= 100: set verbosity='high' to print them.

     Check: negative/imaginary core charge=   -0.000006    0.000000

     Initial potential from superposition of free atoms

     starting charge  295.99426, renormalised to  296.00000
     Number of +U iterations with fixed ns =  0
     Starting occupations:
 --- enter write_ns ---
 LDA+U parameters:
U(  1) =   3.1200   J(  1) =   0.7000   B(  1) =   0.0803
U(  2) =   3.1200   J(  2) =   0.7000   B(  2) =   0.0803
atom    1   Tr[ns(na)] (up, down, total) =   5.00000  0.00000  5.00000
   spin  1
    eigenvalues:
  1.000  1.000  1.000  1.000  1.000
    eigenvectors:
  1.000  0.000  0.000  0.000  0.000
  0.000  1.000  0.000  0.000  0.000
  0.000  0.000  1.000  0.000  0.000
  0.000  0.000  0.000  1.000  0.000
  0.000  0.000  0.000  0.000  1.000
    occupations:
  1.000  0.000  0.000  0.000  0.000
  0.000  1.000  0.000  0.000  0.000
  0.000  0.000  1.000  0.000  0.000
  0.000  0.000  0.000  1.000  0.000
  0.000  0.000  0.000  0.000  1.000
   spin  2
    eigenvalues:
  0.000  0.000  0.000  0.000  0.000
    eigenvectors:
  1.000  0.000  0.000  0.000  0.000
  0.000  1.000  0.000  0.000  0.000
  0.000  0.000  1.000  0.000  0.000
  0.000  0.000  0.000  1.000  0.000
  0.000  0.000  0.000  0.000  1.000
    occupations:
  0.000  0.000  0.000  0.000  0.000
  0.000  0.000  0.000  0.000  0.000
  0.000  0.000  0.000  0.000  0.000
  0.000  0.000  0.000  0.000  0.000
  0.000  0.000  0.000  0.000  0.000
atomic mag. moment =     5.000000
atom    2   Tr[ns(na)] (up, down, total) =   5.00000  0.00000  5.00000
   spin  1
    eigenvalues:
  1.000  1.000  1.000  1.000  1.000
    eigenvectors:
  1.000  0.000  0.000  0.000  0.000
  0.000  1.000  0.000  0.000  0.000
  0.000  0.000  1.000  0.000  0.000
  0.000  0.000  0.000  1.000  0.000
  0.000  0.000  0.000  0.000  1.000
    occupations:
  1.000  0.000  0.000  0.000  0.000
  0.000  1.000  0.000  0.000  0.000
  0.000  0.000  1.000  0.000  0.000
  0.000  0.000  0.000  1.000  0.000
  0.000  0.000  0.000  0.000  1.000
   spin  2
    eigenvalues:
  0.000  0.000  0.000  0.000  0.000
    eigenvectors:
  1.000  0.000  0.000  0.000  0.000
  0.000  1.000  0.000  0.000  0.000
  0.000  0.000  1.000  0.000  0.000
  0.000  0.000  0.000  1.000  0.000
  0.000  0.000  0.000  0.000  1.000
    occupations:
  0.000  0.000  0.000  0.000  0.000
  0.000  0.000  0.000  0.000  0.000
  0.000  0.000  0.000  0.000  0.000
  0.000  0.000  0.000  0.000  0.000
  0.000  0.000  0.000  0.000  0.000
atomic mag. moment =     5.000000
atom    3   Tr[ns(na)] (up, down, total) =   5.00000  0.00000  5.00000
   spin  1
    eigenvalues:
  1.000  1.000  1.000  1.000  1.000
    eigenvectors:
  1.000  0.000  0.000  0.000  0.000
  0.000  1.000  0.000  0.000  0.000
  0.000  0.000  1.000  0.000  0.000
  0.000  0.000  0.000  1.000  0.000
  0.000  0.000  0.000  0.000  1.000
    occupations:
  1.000  0.000  0.000  0.000  0.000
  0.000  1.000  0.000  0.000  0.000
  0.000  0.000  1.000  0.000  0.000
  0.000  0.000  0.000  1.000  0.000
  0.000  0.000  0.000  0.000  1.000
   spin  2
    eigenvalues:
  0.000  0.000  0.000  0.000  0.000
    eigenvectors:
  1.000  0.000  0.000  0.000  0.000
  0.000  1.000  0.000  0.000  0.000
  0.000  0.000  1.000  0.000  0.000
  0.000  0.000  0.000  1.000  0.000
  0.000  0.000  0.000  0.000  1.000
    occupations:
  0.000  0.000  0.000  0.000  0.000
  0.000  0.000  0.000  0.000  0.000
  0.000  0.000  0.000  0.000  0.000
  0.000  0.000  0.000  0.000  0.000
  0.000  0.000  0.000  0.000  0.000
atomic mag. moment =     5.000000
atom    4   Tr[ns(na)] (up, down, total) =   5.00000  0.00000  5.00000
   spin  1
    eigenvalues:
  1.000  1.000  1.000  1.000  1.000
    eigenvectors:
  1.000  0.000  0.000  0.000  0.000
  0.000  1.000  0.000  0.000  0.000
  0.000  0.000  1.000  0.000  0.000
  0.000  0.000  0.000  1.000  0.000
  0.000  0.000  0.000  0.000  1.000
    occupations:
  1.000  0.000  0.000  0.000  0.000
  0.000  1.000  0.000  0.000  0.000
  0.000  0.000  1.000  0.000  0.000
  0.000  0.000  0.000  1.000  0.000
  0.000  0.000  0.000  0.000  1.000
   spin  2
    eigenvalues:
  0.000  0.000  0.000  0.000  0.000
    eigenvectors:
  1.000  0.000  0.000  0.000  0.000
  0.000  1.000  0.000  0.000  0.000
  0.000  0.000  1.000  0.000  0.000
  0.000  0.000  0.000  1.000  0.000
  0.000  0.000  0.000  0.000  1.000
    occupations:
  0.000  0.000  0.000  0.000  0.000
  0.000  0.000  0.000  0.000  0.000
  0.000  0.000  0.000  0.000  0.000
  0.000  0.000  0.000  0.000  0.000
  0.000  0.000  0.000  0.000  0.000
atomic mag. moment =     5.000000
atom    5   Tr[ns(na)] (up, down, total) =   5.00000  0.00000  5.00000
   spin  1
    eigenvalues:
  1.000  1.000  1.000  1.000  1.000
    eigenvectors:
  1.000  0.000  0.000  0.000  0.000
  0.000  1.000  0.000  0.000  0.000
  0.000  0.000  1.000  0.000  0.000
  0.000  0.000  0.000  1.000  0.000
  0.000  0.000  0.000  0.000  1.000
[...]
  1.000  0.000  0.000  0.000  0.000
  0.000  0.000  0.000  0.000  1.000
    occupations:
  0.072 -0.000 -0.000  0.000  0.000
 -0.000  0.081 -0.000  0.000  0.000
 -0.000 -0.000  0.081  0.000  0.000
  0.000  0.000  0.000  0.052 -0.000
  0.000  0.000  0.000 -0.000  0.115
atomic mag. moment =     4.615462
atom    5   Tr[ns(na)] (up, down, total) =   5.01756  0.40290  5.42046
   spin  1
    eigenvalues:
  1.003  1.003  1.003  1.004  1.004
    eigenvectors:
  0.000  0.000  0.000  1.000  0.000
  0.000  0.299  0.701  0.000  0.000
  0.000  0.701  0.299  0.000  0.000
  0.000  0.000  0.000  0.000  1.000
  1.000  0.000  0.000  0.000  0.000
    occupations:
  1.004 -0.000 -0.000  0.000  0.000
 -0.000  1.003 -0.000  0.000  0.000
 -0.000 -0.000  1.003  0.000  0.000
  0.000  0.000  0.000  1.004 -0.000
  0.000  0.000  0.000 -0.000  1.003
   spin  2
    eigenvalues:
  0.053  0.073  0.082  0.082  0.114
    eigenvectors:
  0.000  1.000  0.000  0.000  0.000
  0.000  0.000  0.380  0.620  0.000
  0.000  0.000  0.620  0.380  0.000
  1.000  0.000  0.000  0.000  0.000
  0.000  0.000  0.000  0.000  1.000
    occupations:
  0.073 -0.000 -0.000  0.000  0.000
 -0.000  0.082 -0.000  0.000  0.000
 -0.000 -0.000  0.082  0.000  0.000
  0.000  0.000  0.000  0.053 -0.000
  0.000  0.000  0.000 -0.000  0.114
atomic mag. moment =     4.614659
atom    6   Tr[ns(na)] (up, down, total) =   5.01752  0.40896  5.42648
   spin  1
    eigenvalues:
  1.003  1.003  1.003  1.004  1.004
    eigenvectors:
  0.000  0.000  0.000  1.000  0.000
  0.000  0.309  0.691  0.000  0.000
  0.000  0.691  0.309  0.000  0.000
  0.000  0.000  0.000  0.000  1.000
  1.000  0.000  0.000  0.000  0.000
    occupations:
  1.004 -0.000 -0.000  0.000  0.000
 -0.000  1.003 -0.000  0.000  0.000
 -0.000 -0.000  1.003  0.000  0.000
  0.000  0.000  0.000  1.004 -0.000
  0.000  0.000  0.000 -0.000  1.003
   spin  2
    eigenvalues:
  0.053  0.073  0.081  0.081  0.121
    eigenvectors:
  0.000  1.000  0.000  0.000  0.000
  0.000  0.000  0.460  0.540  0.000
  0.000  0.000  0.540  0.460  0.000
  1.000  0.000  0.000  0.000  0.000
  0.000  0.000  0.000  0.000  1.000
    occupations:
  0.073 -0.000 -0.000  0.000  0.000
 -0.000  0.081 -0.000  0.000  0.000
 -0.000 -0.000  0.081  0.000  0.000
  0.000  0.000  0.000  0.053 -0.000
  0.000  0.000  0.000 -0.000  0.121
atomic mag. moment =     4.608565
atom    7   Tr[ns(na)] (up, down, total) =   0.41054  5.01759  5.42813
   spin  1
    eigenvalues:
  0.054  0.074  0.081  0.081  0.120
    eigenvectors:
  0.000  1.000  0.000  0.000  0.000
  0.000  0.000  0.459  0.541  0.000
  0.000  0.000  0.541  0.459  0.000
  1.000  0.000  0.000  0.000  0.000
  0.000  0.000  0.000  0.000  1.000
    occupations:
  0.074 -0.000 -0.000  0.000  0.000
 -0.000  0.081 -0.000  0.000  0.000
 -0.000 -0.000  0.081  0.000  0.000
  0.000  0.000  0.000  0.054 -0.000
  0.000  0.000  0.000 -0.000  0.120
   spin  2
    eigenvalues:
  1.003  1.003  1.003  1.004  1.004
    eigenvectors:
  0.000  0.000  0.000  1.000  0.000
  0.000  0.349  0.651  0.000  0.000
  0.000  0.651  0.349  0.000  0.000
  0.000  0.000  0.000  0.000  1.000
  1.000  0.000  0.000  0.000  0.000
    occupations:
  1.004 -0.000 -0.000  0.000  0.000
 -0.000  1.003 -0.000  0.000  0.000
 -0.000 -0.000  1.003  0.000  0.000
  0.000  0.000  0.000  1.004 -0.000
  0.000  0.000  0.000 -0.000  1.003
atomic mag. moment =    -4.607052
atom    8   Tr[ns(na)] (up, down, total) =   0.41070  5.01752  5.42821
   spin  1
    eigenvalues:
  0.054  0.074  0.082  0.082  0.120
    eigenvectors:
  0.000  1.000  0.000  0.000  0.000
  0.000  0.000  0.326  0.674  0.000
  0.000  0.000  0.674  0.326  0.000
  1.000  0.000  0.000  0.000  0.000
  0.000  0.000  0.000  0.000  1.000
    occupations:
  0.074 -0.000 -0.000  0.000  0.000
 -0.000  0.082 -0.000  0.000  0.000
 -0.000 -0.000  0.082  0.000  0.000
  0.000  0.000  0.000  0.054 -0.000
  0.000  0.000  0.000 -0.000  0.120
   spin  2
    eigenvalues:
  1.003  1.003  1.003  1.004  1.004
    eigenvectors:
  0.000  0.000  0.000  1.000  0.000
  0.000  0.368  0.632  0.000  0.000
  0.000  0.632  0.368  0.000  0.000
  0.000  0.000  0.000  0.000  1.000
  1.000  0.000  0.000  0.000  0.000
    occupations:
  1.004 -0.000 -0.000  0.000  0.000
 -0.000  1.003 -0.000  0.000  0.000
 -0.000 -0.000  1.003  0.000  0.000
  0.000  0.000  0.000  1.004 -0.000
  0.000  0.000  0.000 -0.000  1.003
atomic mag. moment =    -4.606825
N of occupied +U levels =   43.389310
 --- exit write_ns ---

     total energy              =  -14687.26860646 Ry
     Harris-Foulkes estimate   =  -14685.80697276 Ry
     estimated scf accuracy    <      11.54986094 Ry

     total magnetization       =    20.19 Bohr mag/cell
     absolute magnetization    =    41.50 Bohr mag/cell

     iteration #  2     ecut=    45.00 Ry     beta= 0.10
     Davidson diagonalization with overlap
     ethr =  3.90E-03,  avg # of iterations =  1.0

[...]

     iteration # 18     ecut=    45.00 Ry     beta= 0.10
     Davidson diagonalization with overlap
     c_bands:  1 eigenvalues not converged
     ethr =  5.53E-07,  avg # of iterations =  1.4

[...]

     total energy              =  -14694.01105326 Ry
     Harris-Foulkes estimate   =  -14694.01105297 Ry
     estimated scf accuracy    <       0.00000440 Ry

[...]

     iteration # 35     ecut=    45.00 Ry     beta= 0.10
     Davidson diagonalization with overlap
     ethr =  3.85E-10,  avg # of iterations =  1.2

     Magnetic moment per site:
     atom:    1    charge:   13.5486    magn:    4.2282    constr:    0.0000
     atom:    2    charge:   13.5543    magn:    4.1910    constr:    0.0000
     atom:    3    charge:   13.5549    magn:    4.1887    constr:    0.0000
     atom:    4    charge:   13.5550    magn:    4.1887    constr:    0.0000
     atom:    5    charge:   13.5543    magn:    4.1911    constr:    0.0000
     atom:    6    charge:   13.5488    magn:    4.2281    constr:    0.0000
     atom:    7    charge:   13.5488    magn:   -4.2286    constr:    0.0000
     atom:    8    charge:   13.5488    magn:   -4.2287    constr:    0.0000
     atom:    9    charge:    9.1215    magn:    0.0310    constr:    0.0000
     atom:   10    charge:    9.1209    magn:    0.0282    constr:    0.0000
     atom:   11    charge:    9.1203    magn:    0.0279    constr:    0.0000
     atom:   12    charge:    9.1196    magn:    0.0248    constr:    0.0000
     atom:   13    charge:    9.1198    magn:    0.0250    constr:    0.0000
     atom:   14    charge:    9.1199    magn:    0.0249    constr:    0.0000
     atom:   15    charge:    9.1198    magn:    0.0248    constr:    0.0000
     atom:   16    charge:    9.1202    magn:    0.0279    constr:    0.0000
     atom:   17    charge:    9.1208    magn:    0.0282    constr:    0.0000
     atom:   18    charge:    9.1217    magn:    0.0310    constr:    0.0000
     atom:   19    charge:    9.1228    magn:    0.0385    constr:    0.0000
     atom:   20    charge:    9.1231    magn:   -0.0428    constr:    0.0000
     atom:   21    charge:    9.1218    magn:   -0.0351    constr:    0.0000
     atom:   22    charge:    9.1219    magn:   -0.0352    constr:    0.0000
     atom:   23    charge:    9.1232    magn:   -0.0428    constr:    0.0000
     atom:   24    charge:    9.1227    magn:    0.0386    constr:    0.0000

     End of self-consistent calculation
 --- enter write_ns ---
 LDA+U parameters:
U(  1) =   3.1200   J(  1) =   0.7000   B(  1) =   0.0803
U(  2) =   3.1200   J(  2) =   0.7000   B(  2) =   0.0803
atom    1   Tr[ns(na)] (up, down, total) =   4.97078  0.74207  5.71285
   spin  1
    eigenvalues:
  0.984  0.994  0.994  0.997  1.002
    eigenvectors:
  0.000  0.000  0.000  1.000  0.000
  0.000  0.279  0.721  0.000  0.000
  0.000  0.721  0.279  0.000  0.000
  0.000  0.000  0.000  0.000  1.000
  1.000  0.000  0.000  0.000  0.000
    occupations:
  0.997 -0.000 -0.000  0.000  0.000
 -0.000  0.994 -0.000  0.000  0.000
 -0.000 -0.000  0.994  0.000  0.000
  0.000  0.000  0.000  1.002 -0.000
  0.000  0.000  0.000 -0.000  0.984
   spin  2
    eigenvalues:
  0.065  0.133  0.145  0.145  0.253
    eigenvectors:
  0.000  1.000  0.000  0.000  0.000
  0.000  0.000  0.288  0.712  0.000
  0.000  0.000  0.712  0.288  0.000
  1.000  0.000  0.000  0.000  0.000
  0.000  0.000  0.000  0.000  1.000
    occupations:
  0.133 -0.000 -0.000  0.000  0.000
 -0.000  0.145 -0.000  0.000  0.000
 -0.000 -0.000  0.145  0.000  0.000
  0.000  0.000  0.000  0.065 -0.000
  0.000  0.000  0.000 -0.000  0.253
atomic mag. moment =     4.228707
atom    2   Tr[ns(na)] (up, down, total) =   4.96836  0.77212  5.74048
   spin  1
    eigenvalues:
  0.984  0.993  0.993  0.996  1.002
    eigenvectors:
  0.000  0.000  0.000  1.000  0.000
  0.000  0.235  0.765  0.000  0.000
  0.000  0.765  0.235  0.000  0.000
  0.000  0.000  0.000  0.000  1.000
  1.000  0.000  0.000  0.000  0.000
    occupations:
  0.996 -0.000 -0.000  0.000  0.000
 -0.000  0.993 -0.000  0.000  0.000
 -0.000 -0.000  0.993  0.000  0.000
  0.000  0.000  0.000  1.002 -0.000
  0.000  0.000  0.000 -0.000  0.984
   spin  2
    eigenvalues:
  0.064  0.147  0.147  0.147  0.268
    eigenvectors:
  0.000  0.000  0.000  1.000  0.000
  0.000  0.315  0.685  0.000  0.000
  0.000  0.685  0.315  0.000  0.000
  1.000  0.000  0.000  0.000  0.000
  0.000  0.000  0.000  0.000  1.000
    occupations:
  0.147 -0.000 -0.000  0.000  0.000
 -0.000  0.147 -0.000  0.000  0.000
 -0.000 -0.000  0.147  0.000  0.000
  0.000  0.000  0.000  0.064 -0.000
  0.000  0.000  0.000 -0.000  0.268
atomic mag. moment =     4.196235
atom    3   Tr[ns(na)] (up, down, total) =   4.96782  0.77356  5.74137
   spin  1
    eigenvalues:
  0.984  0.993  0.993  0.997  1.002
    eigenvectors:
  0.000  0.000  0.000  1.000  0.000
  0.000  0.280  0.720  0.000  0.000
  0.000  0.720  0.280  0.000  0.000
  0.000  0.000  0.000  0.000  1.000
  1.000  0.000  0.000  0.000  0.000
    occupations:
  0.997 -0.000 -0.000  0.000  0.000
 -0.000  0.993 -0.000  0.000  0.000
 -0.000 -0.000  0.993  0.000  0.000
  0.000  0.000  0.000  1.002 -0.000
  0.000  0.000  0.000 -0.000  0.984
   spin  2
    eigenvalues:
  0.064  0.146  0.146  0.149  0.268
    eigenvectors:
  0.000  0.000  0.000  1.000  0.000
  0.000  0.313  0.687  0.000  0.000
  0.000  0.687  0.313  0.000  0.000
  1.000  0.000  0.000  0.000  0.000
  0.000  0.000  0.000  0.000  1.000
    occupations:
  0.149 -0.000 -0.000  0.000  0.000
 -0.000  0.146 -0.000  0.000  0.000
 -0.000 -0.000  0.146  0.000  0.000
  0.000  0.000  0.000  0.064 -0.000
  0.000  0.000  0.000 -0.000  0.268
atomic mag. moment =     4.194257
atom    4   Tr[ns(na)] (up, down, total) =   4.96778  0.77361  5.74140
   spin  1
    eigenvalues:
  0.984  0.993  0.993  0.997  1.002
    eigenvectors:
  0.000  0.000  0.000  1.000  0.000
  0.000  0.320  0.680  0.000  0.000
  0.000  0.680  0.320  0.000  0.000
  0.000  0.000  0.000  0.000  1.000
  1.000  0.000  0.000  0.000  0.000
    occupations:
  0.997 -0.000 -0.000  0.000  0.000
 -0.000  0.993 -0.000  0.000  0.000
 -0.000 -0.000  0.993  0.000  0.000
  0.000  0.000  0.000  1.002 -0.000
  0.000  0.000  0.000 -0.000  0.984
   spin  2
    eigenvalues:
  0.064  0.146  0.146  0.149  0.268
    eigenvectors:
  0.000  0.000  0.000  1.000  0.000
  0.000  0.370  0.630  0.000  0.000
  0.000  0.630  0.370  0.000  0.000
  1.000  0.000  0.000  0.000  0.000
  0.000  0.000  0.000  0.000  1.000
    occupations:
  0.149 -0.000 -0.000  0.000  0.000
 -0.000  0.146 -0.000  0.000  0.000
 -0.000 -0.000  0.146  0.000  0.000
  0.000  0.000  0.000  0.064 -0.000
  0.000  0.000  0.000 -0.000  0.268
atomic mag. moment =     4.194172
atom    5   Tr[ns(na)] (up, down, total) =   4.96840  0.77214  5.74053
   spin  1
    eigenvalues:
  0.984  0.993  0.993  0.996  1.002
    eigenvectors:
  0.000  0.000  0.000  1.000  0.000
  0.000  0.320  0.680  0.000  0.000
  0.000  0.680  0.320  0.000  0.000
  0.000  0.000  0.000  0.000  1.000
  1.000  0.000  0.000  0.000  0.000
    occupations:
  0.996 -0.000 -0.000  0.000  0.000
 -0.000  0.993 -0.000  0.000  0.000
 -0.000 -0.000  0.993  0.000  0.000
  0.000  0.000  0.000  1.002 -0.000
  0.000  0.000  0.000 -0.000  0.984
   spin  2
    eigenvalues:
  0.064  0.147  0.147  0.147  0.268
    eigenvectors:
  0.000  0.000  0.000  1.000  0.000
  0.000  0.376  0.624  0.000  0.000
  0.000  0.624  0.376  0.000  0.000
  1.000  0.000  0.000  0.000  0.000
  0.000  0.000  0.000  0.000  1.000
    occupations:
  0.147 -0.000 -0.000  0.000  0.000
 -0.000  0.147 -0.000  0.000  0.000
 -0.000 -0.000  0.147  0.000  0.000
  0.000  0.000  0.000  0.064 -0.000
  0.000  0.000  0.000 -0.000  0.268
atomic mag. moment =     4.196260
atom    6   Tr[ns(na)] (up, down, total) =   4.97077  0.74219  5.71296
   spin  1
    eigenvalues:
  0.984  0.994  0.994  0.997  1.002
    eigenvectors:
  0.000  0.000  0.000  1.000  0.000
  0.000  0.221  0.779  0.000  0.000
  0.000  0.779  0.221  0.000  0.000
  0.000  0.000  0.000  0.000  1.000
  1.000  0.000  0.000  0.000  0.000
    occupations:
  0.997 -0.000 -0.000  0.000  0.000
 -0.000  0.994 -0.000  0.000  0.000
 -0.000 -0.000  0.994  0.000  0.000
  0.000  0.000  0.000  1.002 -0.000
  0.000  0.000  0.000 -0.000  0.984
   spin  2
    eigenvalues:
  0.065  0.133  0.145  0.145  0.253
    eigenvectors:
  0.000  1.000  0.000  0.000  0.000
  0.000  0.000  0.299  0.701  0.000
  0.000  0.000  0.701  0.299  0.000
  1.000  0.000  0.000  0.000  0.000
  0.000  0.000  0.000  0.000  1.000
    occupations:
  0.133 -0.000 -0.000  0.000  0.000
 -0.000  0.145 -0.000  0.000  0.000
 -0.000 -0.000  0.145  0.000  0.000
  0.000  0.000  0.000  0.065 -0.000
  0.000  0.000  0.000 -0.000  0.253
atomic mag. moment =     4.228574
atom    7   Tr[ns(na)] (up, down, total) =   0.74247  4.97101  5.71348
   spin  1
    eigenvalues:
  0.064  0.132  0.144  0.144  0.258
    eigenvectors:
  0.000  1.000  0.000  0.000  0.000
  0.000  0.000  0.401  0.599  0.000
  0.000  0.000  0.599  0.401  0.000
  1.000  0.000  0.000  0.000  0.000
  0.000  0.000  0.000  0.000  1.000
    occupations:
  0.132 -0.000 -0.000  0.000  0.000
 -0.000  0.144 -0.000  0.000  0.000
 -0.000 -0.000  0.144  0.000  0.000
  0.000  0.000  0.000  0.064 -0.000
  0.000  0.000  0.000 -0.000  0.258
   spin  2
    eigenvalues:
  0.984  0.994  0.994  0.997  1.002
    eigenvectors:
  0.000  0.000  0.000  1.000  0.000
  0.000  0.354  0.646  0.000  0.000
  0.000  0.646  0.354  0.000  0.000
  0.000  0.000  0.000  0.000  1.000
  1.000  0.000  0.000  0.000  0.000
    occupations:
  0.997 -0.000 -0.000  0.000  0.000
 -0.000  0.994 -0.000  0.000  0.000
 -0.000 -0.000  0.994  0.000  0.000
  0.000  0.000  0.000  1.002 -0.000
  0.000  0.000  0.000 -0.000  0.984
atomic mag. moment =    -4.228537
atom    8   Tr[ns(na)] (up, down, total) =   0.74231  4.97101  5.71332
   spin  1
    eigenvalues:
  0.064  0.132  0.144  0.144  0.258
    eigenvectors:
  0.000  1.000  0.000  0.000  0.000
  0.000  0.000  0.279  0.721  0.000
  0.000  0.000  0.721  0.279  0.000
  1.000  0.000  0.000  0.000  0.000
  0.000  0.000  0.000  0.000  1.000
    occupations:
  0.132 -0.000 -0.000  0.000  0.000
 -0.000  0.144 -0.000  0.000  0.000
 -0.000 -0.000  0.144  0.000  0.000
  0.000  0.000  0.000  0.064 -0.000
  0.000  0.000  0.000 -0.000  0.258
   spin  2
    eigenvalues:
  0.984  0.994  0.994  0.997  1.002
    eigenvectors:
  0.000  0.000  0.000  1.000  0.000
  0.000  0.318  0.682  0.000  0.000
  0.000  0.682  0.318  0.000  0.000
  0.000  0.000  0.000  0.000  1.000
  1.000  0.000  0.000  0.000  0.000
    occupations:
  0.997 -0.000 -0.000  0.000  0.000
 -0.000  0.994 -0.000  0.000  0.000
 -0.000 -0.000  0.994  0.000  0.000
  0.000  0.000  0.000  1.002 -0.000
  0.000  0.000  0.000 -0.000  0.984
atomic mag. moment =    -4.228697
N of occupied +U levels =   45.816386
 --- exit write_ns ---

     Number of k-points >= 100: set verbosity='high' to print the bands.

     the Fermi energy is    15.2057 ev

!    total energy              =  -14694.01105423 Ry
     Harris-Foulkes estimate   =  -14694.01105321 Ry
     estimated scf accuracy    <       0.00000068 Ry

     total all-electron energy =   -626921.606776 Ry

     The total energy is the sum of the following terms:

     one-electron contribution =    -714.69000202 Ry
     hartree contribution      =     656.67710528 Ry
     xc contribution           =    -737.84569519 Ry
     ewald contribution        =   -2196.78933708 Ry
     Hubbard energy            =       0.46052031 Ry
     one-center paw contrib.   =  -11701.82364553 Ry

     total magnetization       =    17.10 Bohr mag/cell
     absolute magnetization    =    37.04 Bohr mag/cell

     convergence has been achieved in  35 iterations

     Writing output data file mnau2.save/

     General routines

     Parallel routines

     Hubbard U routines

      55h

   This run was terminated on:   6:57:27  11Apr2019

   JOB DONE.