     Program PWSCF v.6.3MaX starts on 11Apr2019 at 18:45:56

     R & G space division:  proc/nbgrp/npool/nimage =      32
     Waiting for input...
     Reading input from standard input

     Current dimensions of program PWSCF are:
     Max number of different atomic species (ntypx) = 10
     Max number of k-points (npk) =  40000
     Max angular momentum in pseudopotentials (lmaxx) =  3
               file Mn.pbe-spn-kjpaw_psl.0.3.1.UPF: wavefunction(s)  3P 3D renormalized
               file Mn.pbe-spn-kjpaw_psl.0.3.1.UPF: wavefunction(s)  3P 3D renormalized
               file Au.pbe-dn-kjpaw_psl.0.1.UPF: wavefunction(s)  6S 6P 5D renormalized

     bravais-lattice index     =            0
     lattice parameter (alat)  =       6.4153  a.u.
     unit-cell volume          =    2724.7774 (a.u.)^3
     number of atoms/cell      =           24
     number of atomic types    =            3
     number of electrons       =       296.00
     number of Kohn-Sham states=          178
     kinetic-energy cutoff     =      45.0000  Ry
     charge density cutoff     =     400.0000  Ry
     convergence threshold     =      1.0E-06
     mixing beta               =       0.1000
     number of iterations used =            8  plain     mixing
     Exchange-correlation      = SLA PW PBX PBC ( 1  4  3  4 0 0)

     celldm(1)=   6.415315  celldm(2)=   0.000000  celldm(3)=   0.000000
     celldm(4)=   0.000000  celldm(5)=   0.000000  celldm(6)=   0.000000

     crystal axes: (cart. coord. in units of alat)
               a(1) = (   1.000000   0.000000   0.000000 )
               a(2) = (   0.000000   1.000000   0.000000 )
               a(3) = (   0.000000   0.000000  10.319937 )

     reciprocal axes: (cart. coord. in units 2 pi/alat)
               b(1) = (  1.000000  0.000000  0.000000 )
               b(2) = (  0.000000  1.000000  0.000000 )
               b(3) = (  0.000000  0.000000  0.096900 )

     PseudoPot. # 1 for Mn read from file:
     ./pseudo/Mn.pbe-spn-kjpaw_psl.0.3.1.UPF
     MD5 check sum: 7b43a3fb0e93e198b8dd8488d8cf503e
     Pseudo is Projector augmented-wave + core cor, Zval = 15.0
     Generated using "atomic" code by A. Dal Corso v.5.0.99 svn rev. 10869
     Shape of augmentation charge: PSQ
     Using radial grid of 1187 points,  6 beta functions with:
                l(1) =   0
                l(2) =   0
                l(3) =   1
                l(4) =   1
                l(5) =   2
                l(6) =   2
     Q(r) pseudized with 0 coefficients

     PseudoPot. # 2 for Mn read from file:
     ./pseudo/Mn.pbe-spn-kjpaw_psl.0.3.1.UPF
     MD5 check sum: 7b43a3fb0e93e198b8dd8488d8cf503e
     Pseudo is Projector augmented-wave + core cor, Zval = 15.0
     Generated using "atomic" code by A. Dal Corso v.5.0.99 svn rev. 10869
     Shape of augmentation charge: PSQ
     Using radial grid of 1187 points,  6 beta functions with:
                l(1) =   0
                l(2) =   0
                l(3) =   1
                l(4) =   1
                l(5) =   2
                l(6) =   2
     Q(r) pseudized with 0 coefficients

     PseudoPot. # 3 for Au read from file:
     ./pseudo/Au.pbe-dn-kjpaw_psl.0.1.UPF
     MD5 check sum: be11e2e8e535ebe2b3ccfb4f88f554cb
     Pseudo is Projector augmented-wave + core cor, Zval = 11.0
     Generated using "atomic" code by A. Dal Corso v.5.0.2 svn rev. 9415
     Shape of augmentation charge: PSQ
     Using radial grid of 1279 points,  6 beta functions with:
                l(1) =   0
                l(2) =   0
                l(3) =   1
                l(4) =   1
                l(5) =   2
                l(6) =   2
     Q(r) pseudized with 0 coefficients

     atomic species   valence    mass     pseudopotential
        Mn1           15.00    54.93800     Mn( 1.00)
        Mn2           15.00    54.93800     Mn( 1.00)
        Au            11.00   196.96600     Au( 1.00)

     Starting magnetic structure
     atomic species   magnetization
        Mn1          0.800
        Mn2         -0.800
        Au           0.000

     Full LDA+U calculation (l_max = 2) with parameters (eV):
     U(  1) =   3.1200   J(  1) =   0.7000   B(  1) =   0.0803
     U(  2) =   3.1200   J(  2) =   0.7000   B(  2) =   0.0803

      8 Sym. Ops. (no inversion) found

   Cartesian axes

     site n.     atom                  positions (alat units)
         1           Mn1 tau(   1) = (   0.0000000   0.0000000   0.0000000  )
         2           Mn1 tau(   2) = (   0.5000000   0.5000000   1.2899921  )
         3           Mn1 tau(   3) = (   0.0000000   0.0000000   2.5799843  )
         4           Mn1 tau(   4) = (   0.5000000   0.5000000   3.8699764  )
         5           Mn2 tau(   5) = (   0.0000000   0.0000000   5.1599686  )
         6           Mn1 tau(   6) = (   0.5000000   0.5000000   6.4499607  )
         7           Mn2 tau(   7) = (   0.0000000   0.0000000   7.7399528  )
         8           Mn2 tau(   8) = (   0.5000000   0.5000000   9.0299450  )
         9           Au  tau(   9) = (   0.5000000   0.5000000   0.4127975  )
        10           Au  tau(  10) = (   0.0000000   0.0000000   0.8771947  )
        11           Au  tau(  11) = (   0.0000000   0.0000000   1.7027896  )
        12           Au  tau(  12) = (   0.5000000   0.5000000   2.1671868  )
        13           Au  tau(  13) = (   0.5000000   0.5000000   2.9927818  )
        14           Au  tau(  14) = (   0.0000000   0.0000000   3.4571789  )
        15           Au  tau(  15) = (   0.0000000   0.0000000   4.2827739  )
        16           Au  tau(  16) = (   0.5000000   0.5000000   4.7471711  )
        17           Au  tau(  17) = (   0.5000000   0.5000000   5.5727660  )
        18           Au  tau(  18) = (   0.0000000   0.0000000   6.0371632  )
        19           Au  tau(  19) = (   0.0000000   0.0000000   6.8627582  )
        20           Au  tau(  20) = (   0.5000000   0.5000000   7.3271553  )
        21           Au  tau(  21) = (   0.5000000   0.5000000   8.1527503  )
        22           Au  tau(  22) = (   0.0000000   0.0000000   8.6171475  )
        23           Au  tau(  23) = (   0.0000000   0.0000000   9.4427424  )
        24           Au  tau(  24) = (   0.5000000   0.5000000   9.9071396  )

     number of k points=   135 (tetrahedron method)

     Number of k-points >= 100: set verbosity='high' to print them.

     Check: negative/imaginary core charge=   -0.000006    0.000000

     Initial potential from superposition of free atoms

     starting charge  295.99426, renormalised to  296.00000
     Number of +U iterations with fixed ns =  0
     Starting occupations:
 --- enter write_ns ---
 LDA+U parameters:
U(  1) =   3.1200   J(  1) =   0.7000   B(  1) =   0.0803
U(  2) =   3.1200   J(  2) =   0.7000   B(  2) =   0.0803
atom    1   Tr[ns(na)] (up, down, total) =   5.00000  0.00000  5.00000
   spin  1
    eigenvalues:
  1.000  1.000  1.000  1.000  1.000
    eigenvectors:
  1.000  0.000  0.000  0.000  0.000
  0.000  1.000  0.000  0.000  0.000
  0.000  0.000  1.000  0.000  0.000
  0.000  0.000  0.000  1.000  0.000
  0.000  0.000  0.000  0.000  1.000
    occupations:
  1.000  0.000  0.000  0.000  0.000
  0.000  1.000  0.000  0.000  0.000
  0.000  0.000  1.000  0.000  0.000
  0.000  0.000  0.000  1.000  0.000
  0.000  0.000  0.000  0.000  1.000
   spin  2
    eigenvalues:
  0.000  0.000  0.000  0.000  0.000
    eigenvectors:
  1.000  0.000  0.000  0.000  0.000
  0.000  1.000  0.000  0.000  0.000
  0.000  0.000  1.000  0.000  0.000
  0.000  0.000  0.000  1.000  0.000
  0.000  0.000  0.000  0.000  1.000
    occupations:
  0.000  0.000  0.000  0.000  0.000
  0.000  0.000  0.000  0.000  0.000
  0.000  0.000  0.000  0.000  0.000
  0.000  0.000  0.000  0.000  0.000
  0.000  0.000  0.000  0.000  0.000
atomic mag. moment =     5.000000
atom    2   Tr[ns(na)] (up, down, total) =   5.00000  0.00000  5.00000
   spin  1
    eigenvalues:
  1.000  1.000  1.000  1.000  1.000
    eigenvectors:
  1.000  0.000  0.000  0.000  0.000
  0.000  1.000  0.000  0.000  0.000
  0.000  0.000  1.000  0.000  0.000
  0.000  0.000  0.000  1.000  0.000
  0.000  0.000  0.000  0.000  1.000
    occupations:
  1.000  0.000  0.000  0.000  0.000
  0.000  1.000  0.000  0.000  0.000
  0.000  0.000  1.000  0.000  0.000
  0.000  0.000  0.000  1.000  0.000
  0.000  0.000  0.000  0.000  1.000
   spin  2
    eigenvalues:
  0.000  0.000  0.000  0.000  0.000
    eigenvectors:
  1.000  0.000  0.000  0.000  0.000
  0.000  1.000  0.000  0.000  0.000
  0.000  0.000  1.000  0.000  0.000
  0.000  0.000  0.000  1.000  0.000
  0.000  0.000  0.000  0.000  1.000
    occupations:
  0.000  0.000  0.000  0.000  0.000
  0.000  0.000  0.000  0.000  0.000
  0.000  0.000  0.000  0.000  0.000
  0.000  0.000  0.000  0.000  0.000
  0.000  0.000  0.000  0.000  0.000
atomic mag. moment =     5.000000
atom    3   Tr[ns(na)] (up, down, total) =   5.00000  0.00000  5.00000
   spin  1
    eigenvalues:
  1.000  1.000  1.000  1.000  1.000
    eigenvectors:
  1.000  0.000  0.000  0.000  0.000
  0.000  1.000  0.000  0.000  0.000
  0.000  0.000  1.000  0.000  0.000
  0.000  0.000  0.000  1.000  0.000
  0.000  0.000  0.000  0.000  1.000
    occupations:
  1.000  0.000  0.000  0.000  0.000
  0.000  1.000  0.000  0.000  0.000
  0.000  0.000  1.000  0.000  0.000
  0.000  0.000  0.000  1.000  0.000
  0.000  0.000  0.000  0.000  1.000
   spin  2
    eigenvalues:
  0.000  0.000  0.000  0.000  0.000
    eigenvectors:
  1.000  0.000  0.000  0.000  0.000
  0.000  1.000  0.000  0.000  0.000
  0.000  0.000  1.000  0.000  0.000
  0.000  0.000  0.000  1.000  0.000
  0.000  0.000  0.000  0.000  1.000
    occupations:
  0.000  0.000  0.000  0.000  0.000
  0.000  0.000  0.000  0.000  0.000
  0.000  0.000  0.000  0.000  0.000
  0.000  0.000  0.000  0.000  0.000
  0.000  0.000  0.000  0.000  0.000
atomic mag. moment =     5.000000
atom    4   Tr[ns(na)] (up, down, total) =   5.00000  0.00000  5.00000
   spin  1
    eigenvalues:
  1.000  1.000  1.000  1.000  1.000
    eigenvectors:
  1.000  0.000  0.000  0.000  0.000
  0.000  1.000  0.000  0.000  0.000
  0.000  0.000  1.000  0.000  0.000
  0.000  0.000  0.000  1.000  0.000
  0.000  0.000  0.000  0.000  1.000
    occupations:
  1.000  0.000  0.000  0.000  0.000
  0.000  1.000  0.000  0.000  0.000
  0.000  0.000  1.000  0.000  0.000
  0.000  0.000  0.000  1.000  0.000
  0.000  0.000  0.000  0.000  1.000
   spin  2
    eigenvalues:
  0.000  0.000  0.000  0.000  0.000
    eigenvectors:
  1.000  0.000  0.000  0.000  0.000
  0.000  1.000  0.000  0.000  0.000
  0.000  0.000  1.000  0.000  0.000
  0.000  0.000  0.000  1.000  0.000
  0.000  0.000  0.000  0.000  1.000
    occupations:
  0.000  0.000  0.000  0.000  0.000
  0.000  0.000  0.000  0.000  0.000
  0.000  0.000  0.000  0.000  0.000
  0.000  0.000  0.000  0.000  0.000
  0.000  0.000  0.000  0.000  0.000
atomic mag. moment =     5.000000
atom    5   Tr[ns(na)] (up, down, total) =   0.00000  5.00000  5.00000
   spin  1
    eigenvalues:
  0.000  0.000  0.000  0.000  0.000
    eigenvectors:
  1.000  0.000  0.000  0.000  0.000
  0.000  1.000  0.000  0.000  0.000
  0.000  0.000  1.000  0.000  0.000
  0.000  0.000  0.000  1.000  0.000
  0.000  0.000  0.000  0.000  1.000
[...]
atomic mag. moment =     4.609225
atom    5   Tr[ns(na)] (up, down, total) =   0.41158  5.01741  5.42899
   spin  1
    eigenvalues:
  0.053  0.073  0.080  0.080  0.125
    eigenvectors:
  0.000  1.000  0.000  0.000  0.000
  0.000  0.000  0.363  0.637  0.000
  0.000  0.000  0.637  0.363  0.000
  1.000  0.000  0.000  0.000  0.000
  0.000  0.000  0.000  0.000  1.000
    occupations:
  0.073 -0.000 -0.000  0.000  0.000
 -0.000  0.080 -0.000  0.000  0.000
 -0.000 -0.000  0.080  0.000  0.000
  0.000  0.000  0.000  0.053 -0.000
  0.000  0.000  0.000 -0.000  0.125
   spin  2
    eigenvalues:
  1.003  1.003  1.003  1.004  1.004
    eigenvectors:
  0.000  0.000  0.000  1.000  0.000
  0.000  0.379  0.621  0.000  0.000
  0.000  0.621  0.379  0.000  0.000
  0.000  0.000  0.000  0.000  1.000
  1.000  0.000  0.000  0.000  0.000
    occupations:
  1.004 -0.000 -0.000  0.000  0.000
 -0.000  1.003 -0.000  0.000  0.000
 -0.000 -0.000  1.003  0.000  0.000
  0.000  0.000  0.000  1.004 -0.000
  0.000  0.000  0.000 -0.000  1.003
atomic mag. moment =    -4.605826
atom    6   Tr[ns(na)] (up, down, total) =   5.01743  0.41063  5.42806
   spin  1
    eigenvalues:
  1.003  1.003  1.003  1.004  1.004
    eigenvectors:
  0.000  0.000  0.000  1.000  0.000
  0.000  0.363  0.637  0.000  0.000
  0.000  0.637  0.363  0.000  0.000
  0.000  0.000  0.000  0.000  1.000
  1.000  0.000  0.000  0.000  0.000
    occupations:
  1.004 -0.000 -0.000  0.000  0.000
 -0.000  1.003 -0.000  0.000  0.000
 -0.000 -0.000  1.003  0.000  0.000
  0.000  0.000  0.000  1.004 -0.000
  0.000  0.000  0.000 -0.000  1.003
   spin  2
    eigenvalues:
  0.053  0.073  0.080  0.080  0.124
    eigenvectors:
  0.000  1.000  0.000  0.000  0.000
  0.000  0.000  0.342  0.658  0.000
  0.000  0.000  0.658  0.342  0.000
  1.000  0.000  0.000  0.000  0.000
  0.000  0.000  0.000  0.000  1.000
    occupations:
  0.073 -0.000 -0.000  0.000  0.000
 -0.000  0.080 -0.000  0.000  0.000
 -0.000 -0.000  0.080  0.000  0.000
  0.000  0.000  0.000  0.053 -0.000
  0.000  0.000  0.000 -0.000  0.124
atomic mag. moment =     4.606805
atom    7   Tr[ns(na)] (up, down, total) =   0.40949  5.01754  5.42703
   spin  1
    eigenvalues:
  0.053  0.073  0.082  0.082  0.121
    eigenvectors:
  0.000  1.000  0.000  0.000  0.000
  0.000  0.000  0.379  0.621  0.000
  0.000  0.000  0.621  0.379  0.000
  1.000  0.000  0.000  0.000  0.000
  0.000  0.000  0.000  0.000  1.000
    occupations:
  0.073 -0.000 -0.000  0.000  0.000
 -0.000  0.082 -0.000  0.000  0.000
 -0.000 -0.000  0.082  0.000  0.000
  0.000  0.000  0.000  0.053 -0.000
  0.000  0.000  0.000 -0.000  0.121
   spin  2
    eigenvalues:
  1.003  1.003  1.003  1.004  1.004
    eigenvectors:
  0.000  0.000  0.000  1.000  0.000
  0.000  0.387  0.613  0.000  0.000
  0.000  0.613  0.387  0.000  0.000
  0.000  0.000  0.000  0.000  1.000
  1.000  0.000  0.000  0.000  0.000
    occupations:
  1.004 -0.000 -0.000  0.000  0.000
 -0.000  1.003 -0.000  0.000  0.000
 -0.000 -0.000  1.003  0.000  0.000
  0.000  0.000  0.000  1.004 -0.000
  0.000  0.000  0.000 -0.000  1.003
atomic mag. moment =    -4.608046
atom    8   Tr[ns(na)] (up, down, total) =   0.40975  5.01749  5.42724
   spin  1
    eigenvalues:
  0.053  0.074  0.082  0.082  0.119
    eigenvectors:
  0.000  1.000  0.000  0.000  0.000
  0.000  0.000  0.469  0.531  0.000
  0.000  0.000  0.531  0.469  0.000
  1.000  0.000  0.000  0.000  0.000
  0.000  0.000  0.000  0.000  1.000
    occupations:
  0.074 -0.000 -0.000  0.000  0.000
 -0.000  0.082 -0.000  0.000  0.000
 -0.000 -0.000  0.082  0.000  0.000
  0.000  0.000  0.000  0.053 -0.000
  0.000  0.000  0.000 -0.000  0.119
   spin  2
    eigenvalues:
  1.003  1.003  1.003  1.004  1.004
    eigenvectors:
  0.000  0.000  0.000  1.000  0.000
  0.000  0.312  0.688  0.000  0.000
  0.000  0.688  0.312  0.000  0.000
  0.000  0.000  0.000  0.000  1.000
  1.000  0.000  0.000  0.000  0.000
    occupations:
  1.004 -0.000 -0.000  0.000  0.000
 -0.000  1.003 -0.000  0.000  0.000
 -0.000 -0.000  1.003  0.000  0.000
  0.000  0.000  0.000  1.004 -0.000
  0.000  0.000  0.000 -0.000  1.003
atomic mag. moment =    -4.607742
N of occupied +U levels =   43.403730
 --- exit write_ns ---

     total energy              =  -14687.27494459 Ry
     Harris-Foulkes estimate   =  -14685.81516580 Ry
     estimated scf accuracy    <      11.56202372 Ry

     total magnetization       =    10.09 Bohr mag/cell
     absolute magnetization    =    41.54 Bohr mag/cell

     iteration #  2     ecut=    45.00 Ry     beta= 0.10
     Davidson diagonalization with overlap
     ethr =  3.91E-03,  avg # of iterations =  1.0

[...]

     iteration # 10     ecut=    45.00 Ry     beta= 0.10
     Davidson diagonalization with overlap
     c_bands:  1 eigenvalues not converged
     c_bands:  3 eigenvalues not converged
     ethr =  1.78E-05,  avg # of iterations =  5.0

[...]

     iteration # 22     ecut=    45.00 Ry     beta= 0.10
     Davidson diagonalization with overlap
     c_bands:  5 eigenvalues not converged
     ethr =  2.96E-08,  avg # of iterations =  1.2

[...]

     total energy              =  -14694.00628590 Ry
     Harris-Foulkes estimate   =  -14694.00628514 Ry
     estimated scf accuracy    <       0.00000131 Ry

[...]

     iteration # 29     ecut=    45.00 Ry     beta= 0.10
     Davidson diagonalization with overlap
     ethr =  4.43E-10,  avg # of iterations =  2.0

     Magnetic moment per site:
     atom:    1    charge:   13.5489    magn:    4.2274    constr:    0.0000
     atom:    2    charge:   13.5543    magn:    4.1930    constr:    0.0000
     atom:    3    charge:   13.5540    magn:    4.1964    constr:    0.0000
     atom:    4    charge:   13.5465    magn:    4.2427    constr:    0.0000
     atom:    5    charge:   13.5442    magn:   -4.2566    constr:    0.0000
     atom:    6    charge:   13.5446    magn:    4.2581    constr:    0.0000
     atom:    7    charge:   13.5471    magn:   -4.2397    constr:    0.0000
     atom:    8    charge:   13.5490    magn:   -4.2271    constr:    0.0000
     atom:    9    charge:    9.1214    magn:    0.0327    constr:    0.0000
     atom:   10    charge:    9.1205    magn:    0.0288    constr:    0.0000
     atom:   11    charge:    9.1199    magn:    0.0290    constr:    0.0000
     atom:   12    charge:    9.1197    magn:    0.0284    constr:    0.0000
     atom:   13    charge:    9.1207    magn:    0.0293    constr:    0.0000
     atom:   14    charge:    9.1224    magn:    0.0331    constr:    0.0000
     atom:   15    charge:    9.1238    magn:    0.0417    constr:    0.0000
     atom:   16    charge:    9.1247    magn:   -0.0399    constr:    0.0000
     atom:   17    charge:    9.1248    magn:   -0.0406    constr:    0.0000
     atom:   18    charge:    9.1239    magn:    0.0444    constr:    0.0000
     atom:   19    charge:    9.1236    magn:    0.0423    constr:    0.0000
     atom:   20    charge:    9.1231    magn:   -0.0416    constr:    0.0000
     atom:   21    charge:    9.1219    magn:   -0.0338    constr:    0.0000
     atom:   22    charge:    9.1225    magn:   -0.0359    constr:    0.0000
     atom:   23    charge:    9.1231    magn:   -0.0426    constr:    0.0000
     atom:   24    charge:    9.1225    magn:    0.0404    constr:    0.0000

     End of self-consistent calculation
 --- enter write_ns ---
 LDA+U parameters:
U(  1) =   3.1200   J(  1) =   0.7000   B(  1) =   0.0803
U(  2) =   3.1200   J(  2) =   0.7000   B(  2) =   0.0803
atom    1   Tr[ns(na)] (up, down, total) =   4.97060  0.74268  5.71328
   spin  1
    eigenvalues:
  0.984  0.994  0.994  0.997  1.002
    eigenvectors:
  0.000  0.000  0.000  1.000  0.000
  0.000  0.371  0.629  0.000  0.000
  0.000  0.629  0.371  0.000  0.000
  0.000  0.000  0.000  0.000  1.000
  1.000  0.000  0.000  0.000  0.000
    occupations:
  0.997 -0.000 -0.000  0.000  0.000
 -0.000  0.994 -0.000  0.000  0.000
 -0.000 -0.000  0.994  0.000  0.000
  0.000  0.000  0.000  1.002 -0.000
  0.000  0.000  0.000 -0.000  0.984
   spin  2
    eigenvalues:
  0.065  0.131  0.145  0.145  0.256
    eigenvectors:
  0.000  1.000  0.000  0.000  0.000
  0.000  0.000  0.331  0.669  0.000
  0.000  0.000  0.669  0.331  0.000
  1.000  0.000  0.000  0.000  0.000
  0.000  0.000  0.000  0.000  1.000
    occupations:
  0.131 -0.000 -0.000  0.000  0.000
 -0.000  0.145 -0.000  0.000  0.000
 -0.000 -0.000  0.145  0.000  0.000
  0.000  0.000  0.000  0.065 -0.000
  0.000  0.000  0.000 -0.000  0.256
atomic mag. moment =     4.227927
atom    2   Tr[ns(na)] (up, down, total) =   4.96854  0.77043  5.73898
   spin  1
    eigenvalues:
  0.984  0.993  0.993  0.996  1.002
    eigenvectors:
  0.000  0.000  0.000  1.000  0.000
  0.000  0.326  0.674  0.000  0.000
  0.000  0.674  0.326  0.000  0.000
  0.000  0.000  0.000  0.000  1.000
  1.000  0.000  0.000  0.000  0.000
    occupations:
  0.996 -0.000 -0.000  0.000  0.000
 -0.000  0.993 -0.000  0.000  0.000
 -0.000 -0.000  0.993  0.000  0.000
  0.000  0.000  0.000  1.002 -0.000
  0.000  0.000  0.000 -0.000  0.984
   spin  2
    eigenvalues:
  0.064  0.144  0.147  0.147  0.270
    eigenvectors:
  0.000  1.000  0.000  0.000  0.000
  0.000  0.000  0.305  0.695  0.000
  0.000  0.000  0.695  0.305  0.000
  1.000  0.000  0.000  0.000  0.000
  0.000  0.000  0.000  0.000  1.000
    occupations:
  0.144 -0.000 -0.000  0.000  0.000
 -0.000  0.147 -0.000  0.000  0.000
 -0.000 -0.000  0.147  0.000  0.000
  0.000  0.000  0.000  0.064 -0.000
  0.000  0.000  0.000 -0.000  0.270
atomic mag. moment =     4.198108
atom    3   Tr[ns(na)] (up, down, total) =   4.96894  0.76805  5.73699
   spin  1
    eigenvalues:
  0.984  0.993  0.993  0.997  1.002
    eigenvectors:
  0.000  0.000  0.000  1.000  0.000
  0.000  0.261  0.739  0.000  0.000
  0.000  0.739  0.261  0.000  0.000
  0.000  0.000  0.000  0.000  1.000
  1.000  0.000  0.000  0.000  0.000
    occupations:
  0.997 -0.000 -0.000  0.000  0.000
 -0.000  0.993 -0.000  0.000  0.000
 -0.000 -0.000  0.993  0.000  0.000
  0.000  0.000  0.000  1.002 -0.000
  0.000  0.000  0.000 -0.000  0.984
   spin  2
    eigenvalues:
  0.064  0.140  0.148  0.148  0.269
    eigenvectors:
  0.000  1.000  0.000  0.000  0.000
  0.000  0.000  0.355  0.645  0.000
  0.000  0.000  0.645  0.355  0.000
  1.000  0.000  0.000  0.000  0.000
  0.000  0.000  0.000  0.000  1.000
    occupations:
  0.140 -0.000 -0.000  0.000  0.000
 -0.000  0.148 -0.000  0.000  0.000
 -0.000 -0.000  0.148  0.000  0.000
  0.000  0.000  0.000  0.064 -0.000
  0.000  0.000  0.000 -0.000  0.269
atomic mag. moment =     4.200881
atom    4   Tr[ns(na)] (up, down, total) =   4.97265  0.72963  5.70228
   spin  1
    eigenvalues:
  0.985  0.994  0.994  0.997  1.002
    eigenvectors:
  0.000  0.000  0.000  1.000  0.000
  0.000  0.336  0.664  0.000  0.000
  0.000  0.664  0.336  0.000  0.000
  0.000  0.000  0.000  0.000  1.000
  1.000  0.000  0.000  0.000  0.000
    occupations:
  0.997 -0.000 -0.000  0.000  0.000
 -0.000  0.994 -0.000  0.000  0.000
 -0.000 -0.000  0.994  0.000  0.000
  0.000  0.000  0.000  1.002 -0.000
  0.000  0.000  0.000 -0.000  0.985
   spin  2
    eigenvalues:
  0.066  0.120  0.148  0.148  0.248
    eigenvectors:
  0.000  1.000  0.000  0.000  0.000
  0.000  0.000  0.329  0.671  0.000
  0.000  0.000  0.671  0.329  0.000
  1.000  0.000  0.000  0.000  0.000
  0.000  0.000  0.000  0.000  1.000
    occupations:
  0.120 -0.000 -0.000  0.000  0.000
 -0.000  0.148 -0.000  0.000  0.000
 -0.000 -0.000  0.148  0.000  0.000
  0.000  0.000  0.000  0.066 -0.000
  0.000  0.000  0.000 -0.000  0.248
atomic mag. moment =     4.243021
atom    5   Tr[ns(na)] (up, down, total) =   0.71906  4.97241  5.69147
   spin  1
    eigenvalues:
  0.065  0.114  0.147  0.147  0.246
    eigenvectors:
  0.000  1.000  0.000  0.000  0.000
  0.000  0.000  0.242  0.758  0.000
  0.000  0.000  0.758  0.242  0.000
  1.000  0.000  0.000  0.000  0.000
  0.000  0.000  0.000  0.000  1.000
    occupations:
  0.114 -0.000 -0.000  0.000  0.000
 -0.000  0.147 -0.000  0.000  0.000
 -0.000 -0.000  0.147  0.000  0.000
  0.000  0.000  0.000  0.065 -0.000
  0.000  0.000  0.000 -0.000  0.246
   spin  2
    eigenvalues:
  0.985  0.994  0.994  0.997  1.003
    eigenvectors:
  0.000  0.000  0.000  1.000  0.000
  0.000  0.254  0.746  0.000  0.000
  0.000  0.746  0.254  0.000  0.000
  0.000  0.000  0.000  0.000  1.000
  1.000  0.000  0.000  0.000  0.000
    occupations:
  0.997 -0.000 -0.000  0.000  0.000
 -0.000  0.994 -0.000  0.000  0.000
 -0.000 -0.000  0.994  0.000  0.000
  0.000  0.000  0.000  1.003 -0.000
  0.000  0.000  0.000 -0.000  0.985
atomic mag. moment =    -4.253355
atom    6   Tr[ns(na)] (up, down, total) =   4.97268  0.71863  5.69131
   spin  1
    eigenvalues:
  0.985  0.994  0.994  0.997  1.003
    eigenvectors:
  0.000  0.000  0.000  1.000  0.000
  0.000  0.379  0.621  0.000  0.000
  0.000  0.621  0.379  0.000  0.000
  0.000  0.000  0.000  0.000  1.000
  1.000  0.000  0.000  0.000  0.000
    occupations:
  0.997 -0.000 -0.000  0.000  0.000
 -0.000  0.994 -0.000  0.000  0.000
 -0.000 -0.000  0.994  0.000  0.000
  0.000  0.000  0.000  1.003 -0.000
  0.000  0.000  0.000 -0.000  0.985
   spin  2
    eigenvalues:
  0.065  0.118  0.144  0.144  0.246
    eigenvectors:
  0.000  1.000  0.000  0.000  0.000
  0.000  0.000  0.329  0.671  0.000
  0.000  0.000  0.671  0.329  0.000
  1.000  0.000  0.000  0.000  0.000
  0.000  0.000  0.000  0.000  1.000
    occupations:
  0.118 -0.000 -0.000  0.000  0.000
 -0.000  0.144 -0.000  0.000  0.000
 -0.000 -0.000  0.144  0.000  0.000
  0.000  0.000  0.000  0.065 -0.000
  0.000  0.000  0.000 -0.000  0.246
atomic mag. moment =     4.254057
atom    7   Tr[ns(na)] (up, down, total) =   0.73312  4.97264  5.70576
   spin  1
    eigenvalues:
  0.065  0.125  0.146  0.146  0.250
    eigenvectors:
  0.000  1.000  0.000  0.000  0.000
  0.000  0.000  0.350  0.650  0.000
  0.000  0.000  0.650  0.350  0.000
  1.000  0.000  0.000  0.000  0.000
  0.000  0.000  0.000  0.000  1.000
    occupations:
  0.125 -0.000 -0.000  0.000  0.000
 -0.000  0.146 -0.000  0.000  0.000
 -0.000 -0.000  0.146  0.000  0.000
  0.000  0.000  0.000  0.065 -0.000
  0.000  0.000  0.000 -0.000  0.250
   spin  2
    eigenvalues:
  0.985  0.994  0.994  0.997  1.002
    eigenvectors:
  0.000  0.000  0.000  1.000  0.000
  0.000  0.371  0.629  0.000  0.000
  0.000  0.629  0.371  0.000  0.000
  0.000  0.000  0.000  0.000  1.000
  1.000  0.000  0.000  0.000  0.000
    occupations:
  0.997 -0.000 -0.000  0.000  0.000
 -0.000  0.994 -0.000  0.000  0.000
 -0.000 -0.000  0.994  0.000  0.000
  0.000  0.000  0.000  1.002 -0.000
  0.000  0.000  0.000 -0.000  0.985
atomic mag. moment =    -4.239511
atom    8   Tr[ns(na)] (up, down, total) =   0.74359  4.97082  5.71441
   spin  1
    eigenvalues:
  0.064  0.129  0.146  0.146  0.258
    eigenvectors:
  0.000  1.000  0.000  0.000  0.000
  0.000  0.000  0.344  0.656  0.000
  0.000  0.000  0.656  0.344  0.000
  1.000  0.000  0.000  0.000  0.000
  0.000  0.000  0.000  0.000  1.000
    occupations:
  0.129 -0.000 -0.000  0.000  0.000
 -0.000  0.146 -0.000  0.000  0.000
 -0.000 -0.000  0.146  0.000  0.000
  0.000  0.000  0.000  0.064 -0.000
  0.000  0.000  0.000 -0.000  0.258
   spin  2
    eigenvalues:
  0.984  0.994  0.994  0.996  1.002
    eigenvectors:
  0.000  0.000  0.000  1.000  0.000
  0.000  0.307  0.693  0.000  0.000
  0.000  0.693  0.307  0.000  0.000
  0.000  0.000  0.000  0.000  1.000
  1.000  0.000  0.000  0.000  0.000
    occupations:
  0.996 -0.000 -0.000  0.000  0.000
 -0.000  0.994 -0.000  0.000  0.000
 -0.000 -0.000  0.994  0.000  0.000
  0.000  0.000  0.000  1.002 -0.000
  0.000  0.000  0.000 -0.000  0.984
atomic mag. moment =    -4.227223
N of occupied +U levels =   45.694477
 --- exit write_ns ---

     Number of k-points >= 100: set verbosity='high' to print the bands.

     the Fermi energy is    15.2582 ev

!    total energy              =  -14694.00628923 Ry
     Harris-Foulkes estimate   =  -14694.00628591 Ry
     estimated scf accuracy    <       0.00000054 Ry

     total all-electron energy =   -626921.602011 Ry

     The total energy is the sum of the following terms:

     one-electron contribution =    -714.51479007 Ry
     hartree contribution      =     656.55083125 Ry
     xc contribution           =    -737.86696641 Ry
     ewald contribution        =   -2196.78933708 Ry
     Hubbard energy            =       0.45184251 Ry
     one-center paw contrib.   =  -11701.83786943 Ry

     total magnetization       =     8.60 Bohr mag/cell
     absolute magnetization    =    37.21 Bohr mag/cell

     convergence has been achieved in  29 iterations

     Writing output data file mnau2.save/

     General routines

     Parallel routines

     Hubbard U routines

      16h

   This run was terminated on:  23: 2:34  11Apr2019

   JOB DONE.