     Program PWSCF v.6.3 starts on 11Dec2018 at 12:31:39

     R & G space division:  proc/nbgrp/npool/nimage =      16
     Waiting for input...
     Reading input from standard input
     Message from routine read_cards :
     DEPRECATED: no units specified in CELL_PARAMETERS card

     Current dimensions of program PWSCF are:
     Max number of different atomic species (ntypx) = 10
     Max number of k-points (npk) =  40000
     Max angular momentum in pseudopotentials (lmaxx) =  3

     bravais-lattice index     =            0
     lattice parameter (alat)  =       3.3701  a.u.
     unit-cell volume          =      99.4821 (a.u.)^3
     number of atoms/cell      =            6
     number of atomic types    =            6
     number of electrons       =        74.00
     number of Kohn-Sham states=           44
     kinetic-energy cutoff     =      30.0000  Ry
     charge density cutoff     =     300.0000  Ry
     convergence threshold     =      1.0E-06
     mixing beta               =       0.3000
     number of iterations used =            8  plain     mixing
     Exchange-correlation      =  SLA  PW   PBE  PBE ( 1  4  3  4 0 0)

     celldm(1)=   3.370130  celldm(2)=   0.000000  celldm(3)=   0.000000
     celldm(4)=   0.000000  celldm(5)=   0.000000  celldm(6)=   0.000000

     crystal axes: (cart. coord. in units of alat)
               a(1) = (   1.000000   0.000000   0.000000 )
               a(2) = (   0.000000   1.000000   0.000000 )
               a(3) = (   0.000000   0.000000   2.598992 )

     reciprocal axes: (cart. coord. in units 2 pi/alat)
               b(1) = (  1.000000  0.000000  0.000000 )
               b(2) = (  0.000000  1.000000  0.000000 )
               b(3) = (  0.000000  0.000000  0.384765 )

     PseudoPot. # 1 for Mn read from file:
     ./pseudo/Mn.pbe-sp-hgh.UPF
     MD5 check sum: 3e34829e68efb4927d63695bef9f06b2
     Pseudo is Norm-conserving, Zval = 15.0
     Generated in analytical, separable form
     Using radial grid of 1187 points,  5 beta functions with:
                l(1) =   0
                l(2) =   0
                l(3) =   1
                l(4) =   1
                l(5) =   2

     PseudoPot. # 2 for Mn read from file:
     ./pseudo/Mn.pbe-sp-hgh.UPF
     MD5 check sum: 3e34829e68efb4927d63695bef9f06b2
     Pseudo is Norm-conserving, Zval = 15.0
     Generated in analytical, separable form
     Using radial grid of 1187 points,  5 beta functions with:
                l(1) =   0
                l(2) =   0
                l(3) =   1
                l(4) =   1
                l(5) =   2

     PseudoPot. # 3 for Au read from file:
     ./pseudo/Au.pbe-nd-rrkjus.UPF
     MD5 check sum: 41a08e3cb62f65879dfe3845f8e5fcb7
     Pseudo is Ultrasoft + core correction, Zval = 11.0
     Generated by new atomic code, or converted to UPF format
     Using radial grid of 1279 points,  3 beta functions with:
                l(1) =   2
                l(2) =   2
                l(3) =   1
     Q(r) pseudized with 0 coefficients

[...]

     PseudoPot. # 6 for Au read from file:
     ./pseudo/Au.pbe-nd-rrkjus.UPF
     MD5 check sum: 41a08e3cb62f65879dfe3845f8e5fcb7
     Pseudo is Ultrasoft + core correction, Zval = 11.0
     Generated by new atomic code, or converted to UPF format
     Using radial grid of 1279 points,  3 beta functions with:
                l(1) =   2
                l(2) =   2
                l(3) =   1
     Q(r) pseudized with 0 coefficients

     atomic species   valence    mass     pseudopotential
        Mn1           15.00     1.00000     Mn( 1.00)
        Mn2           15.00     1.00000     Mn( 1.00)
        Au1           11.00     1.00000     Au( 1.00)
        Au2           11.00     1.00000     Au( 1.00)
        Au3           11.00     1.00000     Au( 1.00)
        Au4           11.00     1.00000     Au( 1.00)

     Starting magnetic structure
     atomic species   magnetization
        Mn1          1.000
        Mn2          1.000
        Au1          0.000
        Au2          0.000
        Au3          0.000
        Au4          0.000

      8 Sym. Ops. (no inversion) found

   Cartesian axes

     site n.     atom                  positions (alat units)
         1           Mn1 tau(   1) = (   0.0000000   0.0000000   0.0000000  )
         2           Mn2 tau(   2) = (   0.5000000   0.5000000   1.2994958  )
         3           Au1 tau(   3) = (   0.0000000   0.0000000   0.8836572  )
         4           Au2 tau(   4) = (   0.0000000   0.0000000   1.7153344  )
         5           Au3 tau(   5) = (   0.5000000   0.5000000   2.1831530  )
         6           Au4 tau(   6) = (   0.5000000   0.5000000   0.4158386  )

     number of k points=   315  Marzari-Vanderbilt smearing, width (Ry)=  0.0200

     Number of k-points >= 100: set verbosity='high' to print them.

     Initial potential from superposition of free atoms

     starting charge   43.99956, renormalised to   74.00000
     Starting wfcs are   36 randomized atomic wfcs +    8 random wfcs

     Self-consistent Calculation

     iteration #  1     ecut=    30.00 Ry     beta= 0.30
     Davidson diagonalization with overlap
     ethr =  1.00E-02,  avg # of iterations =  6.7

     total energy              =    -645.33153590 Ry
     Harris-Foulkes estimate   =    -840.31559836 Ry
     estimated scf accuracy    <     424.51948598 Ry

     total magnetization       =     0.00 Bohr mag/cell
     absolute magnetization    =     0.00 Bohr mag/cell

[...]

     total energy              =    -640.35730413 Ry
     Harris-Foulkes estimate   =    -640.35732152 Ry
     estimated scf accuracy    <       0.00003491 Ry

[...]

     iteration #  9     ecut=    30.00 Ry     beta= 0.30
     Davidson diagonalization with overlap
     ethr =  4.72E-08,  avg # of iterations =  2.0

     Magnetic moment per site:
     atom:    1    charge:   12.3722    magn:    0.0000    constr:    0.0000
     atom:    2    charge:   12.3721    magn:   -0.0000    constr:    0.0000
     atom:    3    charge:    5.7492    magn:   -0.0000    constr:    0.0000
     atom:    4    charge:    5.7492    magn:   -0.0000    constr:    0.0000
     atom:    5    charge:    5.7492    magn:   -0.0000    constr:    0.0000
     atom:    6    charge:    5.7492    magn:   -0.0000    constr:    0.0000

     End of self-consistent calculation

     Number of k-points >= 100: set verbosity='high' to print the bands.

     the Fermi energy is   139.6176 ev

!    total energy              =    -640.35730782 Ry
     Harris-Foulkes estimate   =    -640.35730789 Ry
     estimated scf accuracy    <       0.00000018 Ry

     The total energy is the sum of the following terms:

     one-electron contribution =     578.54002972 Ry
     hartree contribution      =      46.30649051 Ry
     xc contribution           =    -222.32171002 Ry
     ewald contribution        =   -1042.88239728 Ry
     smearing contrib. (-TS)   =       0.00027925 Ry

     total magnetization       =    -0.00 Bohr mag/cell
     absolute magnetization    =     0.00 Bohr mag/cell

     convergence has been achieved in   9 iterations

     Writing output data file mnau2.save/

     General routines

     Parallel routines

   This run was terminated on:  12:37:52  11Dec2018

   JOB DONE.