     Program PWSCF v.6.3MaX starts on 29Mar2019 at 18:17:34

     R & G space division:  proc/nbgrp/npool/nimage =      32
     Waiting for input...
     Reading input from standard input

     Current dimensions of program PWSCF are:
     Max number of different atomic species (ntypx) = 10
     Max number of k-points (npk) =  40000
     Max angular momentum in pseudopotentials (lmaxx) =  3
     Message from routine read_upf::
     Pseudo file ./pseudo/Mn.pbe-spn-kjpaw_psl.0.3.1.UPF has been successfully fixed on the fly.
To avoid this message in the future you can permanently fix
 your pseudo files following instructions given in:
               file Mn.pbe-spn-kjpaw_psl.0.3.1.UPF: wavefunction(s)  3P 3D renormalized
     Message from routine read_upf::
     Pseudo file ./pseudo/Mn.pbe-spn-kjpaw_psl.0.3.1.UPF has been successfully fixed on the fly.
To avoid this message in the future you can permanently fix
 your pseudo files following instructions given in:
               file Mn.pbe-spn-kjpaw_psl.0.3.1.UPF: wavefunction(s)  3P 3D renormalized
     Message from routine read_upf::
     Pseudo file ./pseudo/Au.pbe-dn-kjpaw_psl.0.1.UPF has been successfully fixed on the fly.
To avoid this message in the future you can permanently fix
 your pseudo files following instructions given in:
               file Au.pbe-dn-kjpaw_psl.0.1.UPF: wavefunction(s)  6S 6P 5D renormalized

     Found symmetry operation: I + (  0.0000  0.0000 -0.5000)
     This is a supercell, fractional translations are disabled

     bravais-lattice index     =            0
     lattice parameter (alat)  =       6.4153  a.u.
     unit-cell volume          =    2762.7331 (a.u.)^3
     number of atoms/cell      =           24
     number of atomic types    =            3
     number of electrons       =       296.00
     number of Kohn-Sham states=          178
     kinetic-energy cutoff     =      45.0000  Ry
     charge density cutoff     =     400.0000  Ry
     convergence threshold     =      1.0E-06
     mixing beta               =       0.1000
     number of iterations used =            8  plain     mixing
     Exchange-correlation      = SLA PW PBX PBC ( 1  4  3  4 0 0)

     celldm(1)=   6.415315  celldm(2)=   0.000000  celldm(3)=   0.000000
     celldm(4)=   0.000000  celldm(5)=   0.000000  celldm(6)=   0.000000

     crystal axes: (cart. coord. in units of alat)
               a(1) = (   1.000000   0.000000   0.000000 )
               a(2) = (   0.000000   1.000000   0.000000 )
               a(3) = (   0.000000   0.000000  10.463692 )

     reciprocal axes: (cart. coord. in units 2 pi/alat)
               b(1) = (  1.000000  0.000000  0.000000 )
               b(2) = (  0.000000  1.000000  0.000000 )
               b(3) = (  0.000000  0.000000  0.095569 )

     PseudoPot. # 1 for Mn read from file:
     ./pseudo/Mn.pbe-spn-kjpaw_psl.0.3.1.UPF
     MD5 check sum: 7eef95dd2aae66803482eea66ebeebf1
     Pseudo is Projector augmented-wave + core cor, Zval = 15.0
     Generated using "atomic" code by A. Dal Corso v.5.0.99 svn rev. 10869
     Shape of augmentation charge: PSQ
     Using radial grid of 1187 points,  6 beta functions with:
                l(1) =   0
                l(2) =   0
                l(3) =   1
                l(4) =   1
                l(5) =   2
                l(6) =   2
     Q(r) pseudized with 0 coefficients

     PseudoPot. # 2 for Mn read from file:
     ./pseudo/Mn.pbe-spn-kjpaw_psl.0.3.1.UPF
     MD5 check sum: 7eef95dd2aae66803482eea66ebeebf1
     Pseudo is Projector augmented-wave + core cor, Zval = 15.0
     Generated using "atomic" code by A. Dal Corso v.5.0.99 svn rev. 10869
     Shape of augmentation charge: PSQ
     Using radial grid of 1187 points,  6 beta functions with:
                l(1) =   0
                l(2) =   0
                l(3) =   1
                l(4) =   1
                l(5) =   2
                l(6) =   2
     Q(r) pseudized with 0 coefficients

     PseudoPot. # 3 for Au read from file:
     ./pseudo/Au.pbe-dn-kjpaw_psl.0.1.UPF
     MD5 check sum: 5c9b92683623e7ae2ab3f8e525febab6
     Pseudo is Projector augmented-wave + core cor, Zval = 11.0
     Generated using "atomic" code by A. Dal Corso v.5.0.2 svn rev. 9415
     Shape of augmentation charge: PSQ
     Using radial grid of 1279 points,  6 beta functions with:
                l(1) =   0
                l(2) =   0
                l(3) =   1
                l(4) =   1
                l(5) =   2
                l(6) =   2
     Q(r) pseudized with 0 coefficients

     atomic species   valence    mass     pseudopotential
        Mn1           15.00    54.93800     Mn( 1.00)
        Mn2           15.00    54.93800     Mn( 1.00)
        Au            11.00   196.96600     Au( 1.00)

     Starting magnetic structure
     atomic species   magnetization
        Mn1          0.800
        Mn2         -0.800
        Au           0.000

     Full LDA+U calculation (l_max = 2) with parameters (eV):
     U(  1) =   3.1200   J(  1) =   0.7000   B(  1) =   0.0803
     U(  2) =   3.1200   J(  2) =   0.7000   B(  2) =   0.0803

      8 Sym. Ops. (no inversion) found

   Cartesian axes

     site n.     atom                  positions (alat units)
         1           Mn1 tau(   1) = (   0.0000000   0.0000000   0.0000000  )
         2           Mn1 tau(   2) = (   0.5000000   0.5000000   1.3079615  )
         3           Mn1 tau(   3) = (   0.0000000   0.0000000   2.6159231  )
         4           Mn2 tau(   4) = (   0.5000000   0.5000000   3.9238846  )
         5           Mn1 tau(   5) = (   0.0000000   0.0000000   5.2318461  )
         6           Mn1 tau(   6) = (   0.5000000   0.5000000   6.5398077  )
         7           Mn1 tau(   7) = (   0.0000000   0.0000000   7.8477692  )
         8           Mn2 tau(   8) = (   0.5000000   0.5000000   9.1557307  )
         9           Au  tau(   9) = (   0.5000000   0.5000000   0.4185477  )
        10           Au  tau(  10) = (   0.0000000   0.0000000   0.8894138  )
        11           Au  tau(  11) = (   0.0000000   0.0000000   1.7265092  )
        12           Au  tau(  12) = (   0.5000000   0.5000000   2.1973754  )
        13           Au  tau(  13) = (   0.5000000   0.5000000   3.0344708  )
        14           Au  tau(  14) = (   0.0000000   0.0000000   3.5053369  )
        15           Au  tau(  15) = (   0.0000000   0.0000000   4.3424323  )
        16           Au  tau(  16) = (   0.5000000   0.5000000   4.8132984  )
        17           Au  tau(  17) = (   0.5000000   0.5000000   5.6503938  )
        18           Au  tau(  18) = (   0.0000000   0.0000000   6.1212600  )
        19           Au  tau(  19) = (   0.0000000   0.0000000   6.9583554  )
        20           Au  tau(  20) = (   0.5000000   0.5000000   7.4292215  )
        21           Au  tau(  21) = (   0.5000000   0.5000000   8.2663169  )
        22           Au  tau(  22) = (   0.0000000   0.0000000   8.7371830  )
        23           Au  tau(  23) = (   0.0000000   0.0000000   9.5742784  )
        24           Au  tau(  24) = (   0.5000000   0.5000000  10.0451446  )

     number of k points=    40 (tetrahedron method)
                       cart. coord. in units 2pi/alat
        k(    1) = (   0.0000000   0.0000000   0.0000000), wk =   0.0046296
        k(    2) = (   0.0000000   0.0000000   0.0159281), wk =   0.0092593
        k(    3) = (   0.0000000   0.0000000   0.0318562), wk =   0.0092593
        k(    4) = (   0.0000000   0.0000000  -0.0477843), wk =   0.0046296
        k(    5) = (   0.0000000   0.1666667   0.0000000), wk =   0.0185185
        k(    6) = (   0.0000000   0.1666667   0.0159281), wk =   0.0370370
        k(    7) = (   0.0000000   0.1666667   0.0318562), wk =   0.0370370
        k(    8) = (   0.0000000   0.1666667  -0.0477843), wk =   0.0185185
        k(    9) = (   0.0000000   0.3333333   0.0000000), wk =   0.0185185
        k(   10) = (   0.0000000   0.3333333   0.0159281), wk =   0.0370370
        k(   11) = (   0.0000000   0.3333333   0.0318562), wk =   0.0370370
        k(   12) = (   0.0000000   0.3333333  -0.0477843), wk =   0.0185185
        k(   13) = (   0.0000000  -0.5000000   0.0000000), wk =   0.0092593
        k(   14) = (   0.0000000  -0.5000000   0.0159281), wk =   0.0185185
        k(   15) = (   0.0000000  -0.5000000   0.0318562), wk =   0.0185185
        k(   16) = (   0.0000000  -0.5000000  -0.0477843), wk =   0.0092593
        k(   17) = (   0.1666667   0.1666667   0.0000000), wk =   0.0185185
        k(   18) = (   0.1666667   0.1666667   0.0159281), wk =   0.0370370
        k(   19) = (   0.1666667   0.1666667   0.0318562), wk =   0.0370370
        k(   20) = (   0.1666667   0.1666667  -0.0477843), wk =   0.0185185
        k(   21) = (   0.1666667   0.3333333   0.0000000), wk =   0.0370370
        k(   22) = (   0.1666667   0.3333333   0.0159281), wk =   0.0740741
        k(   23) = (   0.1666667   0.3333333   0.0318562), wk =   0.0740741
        k(   24) = (   0.1666667   0.3333333  -0.0477843), wk =   0.0370370
        k(   25) = (   0.1666667  -0.5000000   0.0000000), wk =   0.0185185
        k(   26) = (   0.1666667  -0.5000000   0.0159281), wk =   0.0370370
        k(   27) = (   0.1666667  -0.5000000   0.0318562), wk =   0.0370370
        k(   28) = (   0.1666667  -0.5000000  -0.0477843), wk =   0.0185185
        k(   29) = (   0.3333333   0.3333333   0.0000000), wk =   0.0185185
        k(   30) = (   0.3333333   0.3333333   0.0159281), wk =   0.0370370
        k(   31) = (   0.3333333   0.3333333   0.0318562), wk =   0.0370370
        k(   32) = (   0.3333333   0.3333333  -0.0477843), wk =   0.0185185
        k(   33) = (   0.3333333  -0.5000000   0.0000000), wk =   0.0185185
        k(   34) = (   0.3333333  -0.5000000   0.0159281), wk =   0.0370370
        k(   35) = (   0.3333333  -0.5000000   0.0318562), wk =   0.0370370
        k(   36) = (   0.3333333  -0.5000000  -0.0477843), wk =   0.0185185
        k(   37) = (  -0.5000000  -0.5000000   0.0000000), wk =   0.0046296
        k(   38) = (  -0.5000000  -0.5000000   0.0159281), wk =   0.0092593
        k(   39) = (  -0.5000000  -0.5000000   0.0318562), wk =   0.0092593
        k(   40) = (  -0.5000000  -0.5000000  -0.0477843), wk =   0.0046296

     Check: negative/imaginary core charge=   -0.000006    0.000000

     Initial potential from superposition of free atoms

     starting charge  295.99426, renormalised to  296.00000
     Number of +U iterations with fixed ns =  0
     Starting occupations:
 --- enter write_ns ---
 LDA+U parameters:
U(  1) =   3.1200   J(  1) =   0.7000   B(  1) =   0.0803
U(  2) =   3.1200   J(  2) =   0.7000   B(  2) =   0.0803
atom    1   Tr[ns(na)] (up, down, total) =   5.00000  0.00000  5.00000
   spin  1
    eigenvalues:
  1.000  1.000  1.000  1.000  1.000
    eigenvectors:
  1.000  0.000  0.000  0.000  0.000
  0.000  1.000  0.000  0.000  0.000
  0.000  0.000  1.000  0.000  0.000
  0.000  0.000  0.000  1.000  0.000
  0.000  0.000  0.000  0.000  1.000
    occupations:
  1.000  0.000  0.000  0.000  0.000
  0.000  1.000  0.000  0.000  0.000
  0.000  0.000  1.000  0.000  0.000
  0.000  0.000  0.000  1.000  0.000
  0.000  0.000  0.000  0.000  1.000
   spin  2
[...]
  0.000  0.000  0.000  0.000  1.000
    occupations:
  0.070 -0.000 -0.000  0.000  0.000
 -0.000  0.078 -0.000  0.000  0.000
 -0.000 -0.000  0.078  0.000  0.000
  0.000  0.000  0.000  0.052 -0.000
  0.000  0.000  0.000 -0.000  0.123
   spin  2
    eigenvalues:
  1.003  1.003  1.003  1.004  1.004
    eigenvectors:
  0.000  0.000  0.000  1.000  0.000
  0.000  0.279  0.721  0.000  0.000
  0.000  0.721  0.279  0.000  0.000
  0.000  0.000  0.000  0.000  1.000
  1.000  0.000  0.000  0.000  0.000
    occupations:
  1.004 -0.000 -0.000  0.000  0.000
 -0.000  1.003 -0.000  0.000  0.000
 -0.000 -0.000  1.003  0.000  0.000
  0.000  0.000  0.000  1.004 -0.000
  0.000  0.000  0.000 -0.000  1.003
atomic mag. moment =    -4.615108
N of occupied +U levels =   43.299468
 --- exit write_ns ---

     total energy              =  -14687.30088732 Ry
     Harris-Foulkes estimate   =  -14685.83940606 Ry
     estimated scf accuracy    <      11.50090089 Ry

     total magnetization       =    20.39 Bohr mag/cell
     absolute magnetization    =    41.73 Bohr mag/cell

     iteration #  2     ecut=    45.00 Ry     beta= 0.10
     Davidson diagonalization with overlap
     ethr =  3.89E-03,  avg # of iterations =  1.0

[...]

     iteration # 14     ecut=    45.00 Ry     beta= 0.10
     Davidson diagonalization with overlap
     c_bands:  5 eigenvalues not converged
     c_bands:  4 eigenvalues not converged
     ethr =  2.91E-06,  avg # of iterations =  5.0

[...]

     total energy              =  -14694.01723249 Ry
     Harris-Foulkes estimate   =  -14694.01723209 Ry
     estimated scf accuracy    <       0.00000298 Ry

[...]

     iteration # 34     ecut=    45.00 Ry     beta= 0.10
     Davidson diagonalization with overlap
     ethr =  1.01E-09,  avg # of iterations =  1.0

     Magnetic moment per site:
     atom:    1    charge:   13.5464    magn:    4.2589    constr:    0.0000
     atom:    2    charge:   13.5512    magn:    4.2210    constr:    0.0000
     atom:    3    charge:   13.5466    magn:    4.2591    constr:    0.0000
     atom:    4    charge:   13.5468    magn:   -4.2623    constr:    0.0000
     atom:    5    charge:   13.5466    magn:    4.2589    constr:    0.0000
     atom:    6    charge:   13.5512    magn:    4.2209    constr:    0.0000
     atom:    7    charge:   13.5465    magn:    4.2588    constr:    0.0000
     atom:    8    charge:   13.5466    magn:   -4.2625    constr:    0.0000
     atom:    9    charge:    9.1372    magn:    0.0299    constr:    0.0000
     atom:   10    charge:    9.1377    magn:    0.0350    constr:    0.0000
     atom:   11    charge:    9.1377    magn:    0.0351    constr:    0.0000
     atom:   12    charge:    9.1371    magn:    0.0301    constr:    0.0000
     atom:   13    charge:    9.1396    magn:    0.0382    constr:    0.0000
     atom:   14    charge:    9.1400    magn:   -0.0371    constr:    0.0000
     atom:   15    charge:    9.1399    magn:   -0.0371    constr:    0.0000
     atom:   16    charge:    9.1395    magn:    0.0382    constr:    0.0000
     atom:   17    charge:    9.1371    magn:    0.0301    constr:    0.0000
     atom:   18    charge:    9.1376    magn:    0.0351    constr:    0.0000
     atom:   19    charge:    9.1376    magn:    0.0350    constr:    0.0000
     atom:   20    charge:    9.1371    magn:    0.0299    constr:    0.0000
     atom:   21    charge:    9.1395    magn:    0.0380    constr:    0.0000
     atom:   22    charge:    9.1399    magn:   -0.0372    constr:    0.0000
     atom:   23    charge:    9.1400    magn:   -0.0372    constr:    0.0000
     atom:   24    charge:    9.1396    magn:    0.0380    constr:    0.0000

     End of self-consistent calculation
 --- enter write_ns ---
 LDA+U parameters:
U(  1) =   3.1200   J(  1) =   0.7000   B(  1) =   0.0803
U(  2) =   3.1200   J(  2) =   0.7000   B(  2) =   0.0803
atom    1   Tr[ns(na)] (up, down, total) =   4.97595  0.71479  5.69074
   spin  1
    eigenvalues:
  0.986  0.994  0.994  0.999  1.002
    eigenvectors:
  0.000  0.000  0.000  1.000  0.000
  0.000  0.315  0.685  0.000  0.000
  0.000  0.685  0.315  0.000  0.000
  0.000  0.000  0.000  0.000  1.000
  1.000  0.000  0.000  0.000  0.000
    occupations:
  0.999 -0.000 -0.000  0.000  0.000
 -0.000  0.994 -0.000  0.000  0.000
 -0.000 -0.000  0.994  0.000  0.000
  0.000  0.000  0.000  1.002 -0.000
  0.000  0.000  0.000 -0.000  0.986
   spin  2
    eigenvalues:
  0.066  0.118  0.141  0.141  0.248
    eigenvectors:
  0.000  1.000  0.000  0.000  0.000
  0.000  0.000  0.309  0.691  0.000
  0.000  0.000  0.691  0.309  0.000
  1.000  0.000  0.000  0.000  0.000
  0.000  0.000  0.000  0.000  1.000
    occupations:
  0.118 -0.000 -0.000  0.000  0.000
 -0.000  0.141 -0.000  0.000  0.000
 -0.000 -0.000  0.141  0.000  0.000
  0.000  0.000  0.000  0.066 -0.000
  0.000  0.000  0.000 -0.000  0.248
atomic mag. moment =     4.261154
atom    2   Tr[ns(na)] (up, down, total) =   4.97266  0.74688  5.71955
   spin  1
    eigenvalues:
  0.986  0.994  0.994  0.997  1.002
    eigenvectors:
  0.000  0.000  0.000  1.000  0.000
  0.000  0.304  0.696  0.000  0.000
  0.000  0.696  0.304  0.000  0.000
  0.000  0.000  0.000  0.000  1.000
  1.000  0.000  0.000  0.000  0.000
    occupations:
  0.997 -0.000 -0.000  0.000  0.000
 -0.000  0.994 -0.000  0.000  0.000
 -0.000 -0.000  0.994  0.000  0.000
  0.000  0.000  0.000  1.002 -0.000
  0.000  0.000  0.000 -0.000  0.986
   spin  2
    eigenvalues:
  0.064  0.127  0.144  0.144  0.267
    eigenvectors:
  0.000  1.000  0.000  0.000  0.000
  0.000  0.000  0.269  0.731  0.000
  0.000  0.000  0.731  0.269  0.000
  1.000  0.000  0.000  0.000  0.000
  0.000  0.000  0.000  0.000  1.000
    occupations:
  0.127 -0.000 -0.000  0.000  0.000
 -0.000  0.144 -0.000  0.000  0.000
 -0.000 -0.000  0.144  0.000  0.000
  0.000  0.000  0.000  0.064 -0.000
  0.000  0.000  0.000 -0.000  0.267
atomic mag. moment =     4.225782
atom    3   Tr[ns(na)] (up, down, total) =   4.97596  0.71488  5.69084
   spin  1
    eigenvalues:
  0.986  0.994  0.994  0.999  1.002
    eigenvectors:
  0.000  0.000  0.000  1.000  0.000
  0.000  0.359  0.641  0.000  0.000
  0.000  0.641  0.359  0.000  0.000
  0.000  0.000  0.000  0.000  1.000
  1.000  0.000  0.000  0.000  0.000
    occupations:
  0.999 -0.000 -0.000  0.000  0.000
 -0.000  0.994 -0.000  0.000  0.000
 -0.000 -0.000  0.994  0.000  0.000
  0.000  0.000  0.000  1.002 -0.000
  0.000  0.000  0.000 -0.000  0.986
   spin  2
    eigenvalues:
  0.066  0.118  0.142  0.142  0.248
    eigenvectors:
  0.000  1.000  0.000  0.000  0.000
  0.000  0.000  0.331  0.669  0.000
  0.000  0.000  0.669  0.331  0.000
  1.000  0.000  0.000  0.000  0.000
  0.000  0.000  0.000  0.000  1.000
    occupations:
  0.118 -0.000 -0.000  0.000  0.000
 -0.000  0.142 -0.000  0.000  0.000
 -0.000 -0.000  0.142  0.000  0.000
  0.000  0.000  0.000  0.066 -0.000
  0.000  0.000  0.000 -0.000  0.248
atomic mag. moment =     4.261077
atom    4   Tr[ns(na)] (up, down, total) =   0.71673  4.97349  5.69022
   spin  1
    eigenvalues:
  0.064  0.122  0.140  0.140  0.251
    eigenvectors:
  0.000  1.000  0.000  0.000  0.000
  0.000  0.000  0.418  0.582  0.000
  0.000  0.000  0.582  0.418  0.000
  1.000  0.000  0.000  0.000  0.000
  0.000  0.000  0.000  0.000  1.000
    occupations:
  0.122 -0.000 -0.000  0.000  0.000
 -0.000  0.140 -0.000  0.000  0.000
 -0.000 -0.000  0.140  0.000  0.000
  0.000  0.000  0.000  0.064 -0.000
  0.000  0.000  0.000 -0.000  0.251
   spin  2
    eigenvalues:
  0.985  0.994  0.994  0.998  1.002
    eigenvectors:
  0.000  0.000  0.000  1.000  0.000
  0.000  0.281  0.719  0.000  0.000
  0.000  0.719  0.281  0.000  0.000
  0.000  0.000  0.000  0.000  1.000
  1.000  0.000  0.000  0.000  0.000
    occupations:
  0.998 -0.000 -0.000  0.000  0.000
 -0.000  0.994 -0.000  0.000  0.000
 -0.000 -0.000  0.994  0.000  0.000
  0.000  0.000  0.000  1.002 -0.000
  0.000  0.000  0.000 -0.000  0.985
atomic mag. moment =    -4.256755
atom    5   Tr[ns(na)] (up, down, total) =   4.97593  0.71496  5.69088
   spin  1
    eigenvalues:
  0.986  0.994  0.994  0.999  1.002
    eigenvectors:
  0.000  0.000  0.000  1.000  0.000
  0.000  0.268  0.732  0.000  0.000
  0.000  0.732  0.268  0.000  0.000
  0.000  0.000  0.000  0.000  1.000
  1.000  0.000  0.000  0.000  0.000
    occupations:
  0.999 -0.000 -0.000  0.000  0.000
 -0.000  0.994 -0.000  0.000  0.000
 -0.000 -0.000  0.994  0.000  0.000
  0.000  0.000  0.000  1.002 -0.000
  0.000  0.000  0.000 -0.000  0.986
   spin  2
    eigenvalues:
  0.066  0.118  0.141  0.141  0.247
    eigenvectors:
  0.000  1.000  0.000  0.000  0.000
  0.000  0.000  0.319  0.681  0.000
  0.000  0.000  0.681  0.319  0.000
  1.000  0.000  0.000  0.000  0.000
  0.000  0.000  0.000  0.000  1.000
    occupations:
  0.118 -0.000 -0.000  0.000  0.000
 -0.000  0.141 -0.000  0.000  0.000
 -0.000 -0.000  0.141  0.000  0.000
  0.000  0.000  0.000  0.066 -0.000
  0.000  0.000  0.000 -0.000  0.247
atomic mag. moment =     4.260968
atom    6   Tr[ns(na)] (up, down, total) =   4.97266  0.74687  5.71954
   spin  1
    eigenvalues:
  0.986  0.994  0.994  0.997  1.002
    eigenvectors:
  0.000  0.000  0.000  1.000  0.000
  0.000  0.331  0.669  0.000  0.000
  0.000  0.669  0.331  0.000  0.000
  0.000  0.000  0.000  0.000  1.000
  1.000  0.000  0.000  0.000  0.000
    occupations:
  0.997 -0.000 -0.000  0.000  0.000
 -0.000  0.994 -0.000  0.000  0.000
 -0.000 -0.000  0.994  0.000  0.000
  0.000  0.000  0.000  1.002 -0.000
  0.000  0.000  0.000 -0.000  0.986
   spin  2
    eigenvalues:
  0.064  0.128  0.144  0.144  0.267
    eigenvectors:
  0.000  1.000  0.000  0.000  0.000
  0.000  0.000  0.264  0.736  0.000
  0.000  0.000  0.736  0.264  0.000
  1.000  0.000  0.000  0.000  0.000
  0.000  0.000  0.000  0.000  1.000
    occupations:
  0.128 -0.000 -0.000  0.000  0.000
 -0.000  0.144 -0.000  0.000  0.000
 -0.000 -0.000  0.144  0.000  0.000
  0.000  0.000  0.000  0.064 -0.000
  0.000  0.000  0.000 -0.000  0.267
atomic mag. moment =     4.225792
atom    7   Tr[ns(na)] (up, down, total) =   4.97592  0.71489  5.69081
   spin  1
    eigenvalues:
  0.986  0.994  0.994  0.999  1.002
    eigenvectors:
  0.000  0.000  0.000  1.000  0.000
  0.000  0.282  0.718  0.000  0.000
  0.000  0.718  0.282  0.000  0.000
  0.000  0.000  0.000  0.000  1.000
  1.000  0.000  0.000  0.000  0.000
    occupations:
  0.999 -0.000 -0.000  0.000  0.000
 -0.000  0.994 -0.000  0.000  0.000
 -0.000 -0.000  0.994  0.000  0.000
  0.000  0.000  0.000  1.002 -0.000
  0.000  0.000  0.000 -0.000  0.986
   spin  2
    eigenvalues:
  0.066  0.118  0.141  0.141  0.248
    eigenvectors:
  0.000  1.000  0.000  0.000  0.000
  0.000  0.000  0.337  0.663  0.000
  0.000  0.000  0.663  0.337  0.000
  1.000  0.000  0.000  0.000  0.000
  0.000  0.000  0.000  0.000  1.000
    occupations:
  0.118 -0.000 -0.000  0.000  0.000
 -0.000  0.141 -0.000  0.000  0.000
 -0.000 -0.000  0.141  0.000  0.000
  0.000  0.000  0.000  0.066 -0.000
  0.000  0.000  0.000 -0.000  0.248
atomic mag. moment =     4.261031
atom    8   Tr[ns(na)] (up, down, total) =   0.71646  4.97345  5.68991
   spin  1
    eigenvalues:
  0.064  0.122  0.140  0.140  0.250
    eigenvectors:
  0.000  1.000  0.000  0.000  0.000
  0.000  0.000  0.315  0.685  0.000
  0.000  0.000  0.685  0.315  0.000
  1.000  0.000  0.000  0.000  0.000
  0.000  0.000  0.000  0.000  1.000
    occupations:
  0.122 -0.000 -0.000  0.000  0.000
 -0.000  0.140 -0.000  0.000  0.000
 -0.000 -0.000  0.140  0.000  0.000
  0.000  0.000  0.000  0.064 -0.000
  0.000  0.000  0.000 -0.000  0.250
   spin  2
    eigenvalues:
  0.985  0.994  0.994  0.998  1.002
    eigenvectors:
  0.000  0.000  0.000  1.000  0.000
  0.000  0.295  0.705  0.000  0.000
  0.000  0.705  0.295  0.000  0.000
  0.000  0.000  0.000  0.000  1.000
  1.000  0.000  0.000  0.000  0.000
    occupations:
  0.998 -0.000 -0.000  0.000  0.000
 -0.000  0.994 -0.000  0.000  0.000
 -0.000 -0.000  0.994  0.000  0.000
  0.000  0.000  0.000  1.002 -0.000
  0.000  0.000  0.000 -0.000  0.985
atomic mag. moment =    -4.256995
N of occupied +U levels =   45.582469
 --- exit write_ns ---

 ------ SPIN UP ------------

          k = 0.0000 0.0000 0.0000 ( 14071 PWs)   bands (ev):

   -67.0279 -67.0276 -67.0274 -67.0272 -66.9201 -66.9200 -62.4838 -62.4829
   -35.8003 -35.7999 -35.7997 -35.7994 -35.7423 -35.7423 -35.7420 -35.7420
   -35.7419 -35.7419 -35.7417 -35.7417 -35.7057 -35.7056 -35.6296 -35.6296
   -35.6294 -35.6294 -31.3037 -31.3027 -31.3024 -31.3024 -31.3016 -31.3016
     5.5815   5.7091   5.7473   6.1036   6.2091   6.7596   6.8638   7.3992
     7.9872   8.2025   8.2095   8.2116   8.2498   8.3436   8.3705   8.3750
     8.5154   8.5216   8.6392   8.6586   8.6873   8.6993   8.9105   9.0680
     9.0776   9.1415   9.1683   9.2047   9.2728   9.4227   9.4235   9.5643
     9.7209   9.7281   9.8252   9.8446   9.8907   9.9185   9.9187   9.9347
     9.9347   9.9694   9.9694  10.0078  10.0078  10.0596  10.0715  10.1061
    10.1399  10.1399  10.1543  10.1543  10.3208  10.3208  10.3212  10.3212
    10.3414  10.3414  10.3682  10.3682  10.3904  10.3904  10.4009  10.4254
    10.4270  10.4270  10.4556  10.4556  10.4688  10.5297  10.5297  10.5615
    10.7052  10.7859  10.7859  10.7992  10.8642  10.8642  10.8729  10.9759
    11.0400  11.0509  11.0993  11.1899  11.1899  11.1943  11.2458  11.2665
    11.3443  11.3869  11.3869  11.4057  11.5232  11.6147  11.6158  11.6432
    11.6485  11.6538  11.6538  11.6794  11.8826  11.8893  11.8998  11.9182
    11.9182  11.9731  12.0768  12.0768  12.2832  12.3301  12.3916  12.3916
    12.4366  12.4366  12.5208  12.5467  12.5700  12.7101  12.7652  12.7700
    12.9563  13.4393  13.8639  14.6211  15.1664  15.9616  16.6529  16.6529
    16.6549  16.6549  16.6651  16.6653  16.8296  16.8308  17.0190  17.1780
    17.8136  18.7792  19.1141  19.8534  19.8534  20.1716  20.1716  20.2421
    20.2421  20.8510

[...]

          k =-0.5000-0.5000 0.0000 ( 14124 PWs)   bands (ev):

[...]

 ------ SPIN DOWN ----------

[...]

          k = 0.3333-0.5000-0.0478 ( 14140 PWs)   bands (ev):

[...]

          k =-0.5000-0.5000-0.0478 ( 14176 PWs)   bands (ev):

   -67.0920 -67.0914 -62.4133 -62.4130 -62.4130 -62.4128 -62.3413 -62.3410
   -35.8633 -35.8625 -35.8174 -35.8174 -35.8169 -35.8169 -31.2478 -31.2478
   -31.2476 -31.2476 -31.2476 -31.2476 -31.2474 -31.2474 -31.2336 -31.2333
   -31.2333 -31.2331 -31.1728 -31.1726 -31.1714 -31.1714 -31.1712 -31.1712
     8.0326   8.0326   8.0752   8.0752   8.4952   8.4952   8.4978   8.4978
     8.8186   8.8186   8.8708   8.8708   9.0694   9.0694   9.0694   9.0694
     9.1378   9.1379   9.1644   9.1645   9.1869   9.1869   9.1870   9.1870
     9.3760   9.3760   9.3761   9.3761   9.6481   9.6481   9.6483   9.6483
     9.6804   9.6804   9.6805   9.6805   9.7069   9.7070  10.0886  10.0886
    10.0886  10.0886  10.3668  10.3668  10.4795  10.4795  10.4849  10.4850
    10.5840  10.5840  10.5840  10.5840  10.9929  10.9930  11.0244  11.0249
    11.1192  11.1192  11.1193  11.1193  11.1331  11.1335  11.7001  11.7002
    11.7327  11.7327  11.7328  11.7328  11.7544  11.7544  11.7552  11.7552
    11.7805  11.7806  11.7979  11.7979  11.8473  11.8474  11.8476  11.8477
    11.8803  11.8803  11.9153  11.9155  11.9783  11.9783  12.0213  12.0213
    12.0651  12.0651  13.1968  13.1968  13.2143  13.2144  13.2239  13.2240
    13.7699  13.7699  13.7700  13.7700  14.1618  14.1618  14.1619  14.1619
    14.4996  14.4996  14.4998  14.4998  15.6556  15.6556  15.6557  15.6557
    16.3615  16.3616  16.5855  16.5856  16.6782  16.6784  16.8782  16.8783
    16.9670  16.9670  16.9673  16.9673  17.4831  17.4832  17.6073  17.6073
    17.6074  17.6074  17.6079  17.6079  17.8395  17.8396  17.8397  17.8397
    17.8729  17.8730  17.9366  17.9367  18.1762  18.1763  18.4804  18.4805
    18.5775  18.5775

     the Fermi energy is    15.0345 ev

!    total energy              =  -14694.01723411 Ry
     Harris-Foulkes estimate   =  -14694.01723257 Ry
     estimated scf accuracy    <       0.00000076 Ry

     total all-electron energy =   -626921.612956 Ry

     The total energy is the sum of the following terms:

     one-electron contribution =    -729.73151005 Ry
     hartree contribution      =     661.41627108 Ry
     xc contribution           =    -737.67801555 Ry
     ewald contribution        =   -2186.64874840 Ry
     Hubbard energy            =       0.44119601 Ry
     one-center paw contrib.   =  -11701.81642719 Ry

     total magnetization       =    17.43 Bohr mag/cell
     absolute magnetization    =    37.35 Bohr mag/cell

     convergence has been achieved in  34 iterations

     Writing output data file mnau2.save/

     General routines

     Parallel routines

     Hubbard U routines

   This run was terminated on:  18:47:29  29Mar2019

   JOB DONE.