     Program PWSCF v.6.3MaX starts on  1Apr2019 at 17: 9:23

     R & G space division:  proc/nbgrp/npool/nimage =      22
     Waiting for input...
     Reading input from standard input

     Current dimensions of program PWSCF are:
     Max number of different atomic species (ntypx) = 10
     Max number of k-points (npk) =  40000
     Max angular momentum in pseudopotentials (lmaxx) =  3
     Message from routine read_upf::
     Pseudo file ./pseudo/Mn.pbe-spn-kjpaw_psl.0.3.1.UPF has been successfully fixed on the fly.
To avoid this message in the future you can permanently fix
 your pseudo files following instructions given in:
               file Mn.pbe-spn-kjpaw_psl.0.3.1.UPF: wavefunction(s)  3P 3D renormalized
     Message from routine read_upf::
     Pseudo file ./pseudo/Mn.pbe-spn-kjpaw_psl.0.3.1.UPF has been successfully fixed on the fly.
To avoid this message in the future you can permanently fix
 your pseudo files following instructions given in:
               file Mn.pbe-spn-kjpaw_psl.0.3.1.UPF: wavefunction(s)  3P 3D renormalized
     Message from routine read_upf::
     Pseudo file ./pseudo/Au.pbe-dn-kjpaw_psl.0.1.UPF has been successfully fixed on the fly.
To avoid this message in the future you can permanently fix
 your pseudo files following instructions given in:
               file Au.pbe-dn-kjpaw_psl.0.1.UPF: wavefunction(s)  6S 6P 5D renormalized

     bravais-lattice index     =            0
     lattice parameter (alat)  =       6.4153  a.u.
     unit-cell volume          =    2762.7331 (a.u.)^3
     number of atoms/cell      =           24
     number of atomic types    =            3
     number of electrons       =       296.00
     number of Kohn-Sham states=          178
     kinetic-energy cutoff     =      45.0000  Ry
     charge density cutoff     =     400.0000  Ry
     convergence threshold     =      1.0E-06
     mixing beta               =       0.1000
     number of iterations used =            8  plain     mixing
     Exchange-correlation      = SLA PW PBX PBC ( 1  4  3  4 0 0)

     celldm(1)=   6.415315  celldm(2)=   0.000000  celldm(3)=   0.000000
     celldm(4)=   0.000000  celldm(5)=   0.000000  celldm(6)=   0.000000

     crystal axes: (cart. coord. in units of alat)
               a(1) = (   1.000000   0.000000   0.000000 )
               a(2) = (   0.000000   1.000000   0.000000 )
               a(3) = (   0.000000   0.000000  10.463692 )

     reciprocal axes: (cart. coord. in units 2 pi/alat)
               b(1) = (  1.000000  0.000000  0.000000 )
               b(2) = (  0.000000  1.000000  0.000000 )
               b(3) = (  0.000000  0.000000  0.095569 )

     PseudoPot. # 1 for Mn read from file:
     ./pseudo/Mn.pbe-spn-kjpaw_psl.0.3.1.UPF
     MD5 check sum: 7eef95dd2aae66803482eea66ebeebf1
     Pseudo is Projector augmented-wave + core cor, Zval = 15.0
     Generated using "atomic" code by A. Dal Corso v.5.0.99 svn rev. 10869
     Shape of augmentation charge: PSQ
     Using radial grid of 1187 points,  6 beta functions with:
                l(1) =   0
                l(2) =   0
                l(3) =   1
                l(4) =   1
                l(5) =   2
                l(6) =   2
     Q(r) pseudized with 0 coefficients

     PseudoPot. # 2 for Mn read from file:
     ./pseudo/Mn.pbe-spn-kjpaw_psl.0.3.1.UPF
     MD5 check sum: 7eef95dd2aae66803482eea66ebeebf1
     Pseudo is Projector augmented-wave + core cor, Zval = 15.0
     Generated using "atomic" code by A. Dal Corso v.5.0.99 svn rev. 10869
     Shape of augmentation charge: PSQ
     Using radial grid of 1187 points,  6 beta functions with:
                l(1) =   0
                l(2) =   0
                l(3) =   1
                l(4) =   1
                l(5) =   2
                l(6) =   2
     Q(r) pseudized with 0 coefficients

     PseudoPot. # 3 for Au read from file:
     ./pseudo/Au.pbe-dn-kjpaw_psl.0.1.UPF
     MD5 check sum: 5c9b92683623e7ae2ab3f8e525febab6
     Pseudo is Projector augmented-wave + core cor, Zval = 11.0
     Generated using "atomic" code by A. Dal Corso v.5.0.2 svn rev. 9415
     Shape of augmentation charge: PSQ
     Using radial grid of 1279 points,  6 beta functions with:
                l(1) =   0
                l(2) =   0
                l(3) =   1
                l(4) =   1
                l(5) =   2
                l(6) =   2
     Q(r) pseudized with 0 coefficients

     atomic species   valence    mass     pseudopotential
        Mn1           15.00    54.93800     Mn( 1.00)
        Mn2           15.00    54.93800     Mn( 1.00)
        Au            11.00   196.96600     Au( 1.00)

     Starting magnetic structure
     atomic species   magnetization
        Mn1          0.800
        Mn2         -0.800
        Au           0.000

     Full LDA+U calculation (l_max = 2) with parameters (eV):
     U(  1) =   3.1200   J(  1) =   0.7000   B(  1) =   0.0803
     U(  2) =   3.1200   J(  2) =   0.7000   B(  2) =   0.0803

      8 Sym. Ops. (no inversion) found

   Cartesian axes

     site n.     atom                  positions (alat units)
         1           Mn1 tau(   1) = (   0.0000000   0.0000000   0.0000000  )
         2           Mn1 tau(   2) = (   0.5000000   0.5000000   1.3079615  )
         3           Mn1 tau(   3) = (   0.0000000   0.0000000   2.6159231  )
         4           Mn2 tau(   4) = (   0.5000000   0.5000000   3.9238846  )
         5           Mn1 tau(   5) = (   0.0000000   0.0000000   5.2318461  )
         6           Mn1 tau(   6) = (   0.5000000   0.5000000   6.5398077  )
         7           Mn2 tau(   7) = (   0.0000000   0.0000000   7.8477692  )
         8           Mn2 tau(   8) = (   0.5000000   0.5000000   9.1557307  )
         9           Au  tau(   9) = (   0.5000000   0.5000000   0.4185477  )
        10           Au  tau(  10) = (   0.0000000   0.0000000   0.8894138  )
        11           Au  tau(  11) = (   0.0000000   0.0000000   1.7265092  )
        12           Au  tau(  12) = (   0.5000000   0.5000000   2.1973754  )
        13           Au  tau(  13) = (   0.5000000   0.5000000   3.0344708  )
        14           Au  tau(  14) = (   0.0000000   0.0000000   3.5053369  )
        15           Au  tau(  15) = (   0.0000000   0.0000000   4.3424323  )
        16           Au  tau(  16) = (   0.5000000   0.5000000   4.8132984  )
        17           Au  tau(  17) = (   0.5000000   0.5000000   5.6503938  )
        18           Au  tau(  18) = (   0.0000000   0.0000000   6.1212600  )
        19           Au  tau(  19) = (   0.0000000   0.0000000   6.9583554  )
        20           Au  tau(  20) = (   0.5000000   0.5000000   7.4292215  )
        21           Au  tau(  21) = (   0.5000000   0.5000000   8.2663169  )
        22           Au  tau(  22) = (   0.0000000   0.0000000   8.7371830  )
        23           Au  tau(  23) = (   0.0000000   0.0000000   9.5742784  )
        24           Au  tau(  24) = (   0.5000000   0.5000000  10.0451446  )

     number of k points=    18 (tetrahedron method)
                       cart. coord. in units 2pi/alat
        k(    1) = (   0.0000000   0.0000000   0.0000000), wk =   0.0156250
        k(    2) = (   0.0000000   0.0000000   0.0238921), wk =   0.0312500
        k(    3) = (   0.0000000   0.0000000  -0.0477843), wk =   0.0156250
        k(    4) = (   0.0000000   0.2500000   0.0000000), wk =   0.0625000
        k(    5) = (   0.0000000   0.2500000   0.0238921), wk =   0.1250000
        k(    6) = (   0.0000000   0.2500000  -0.0477843), wk =   0.0625000
        k(    7) = (   0.0000000  -0.5000000   0.0000000), wk =   0.0312500
        k(    8) = (   0.0000000  -0.5000000   0.0238921), wk =   0.0625000
        k(    9) = (   0.0000000  -0.5000000  -0.0477843), wk =   0.0312500
        k(   10) = (   0.2500000   0.2500000   0.0000000), wk =   0.0625000
        k(   11) = (   0.2500000   0.2500000   0.0238921), wk =   0.1250000
        k(   12) = (   0.2500000   0.2500000  -0.0477843), wk =   0.0625000
        k(   13) = (   0.2500000  -0.5000000   0.0000000), wk =   0.0625000
        k(   14) = (   0.2500000  -0.5000000   0.0238921), wk =   0.1250000
        k(   15) = (   0.2500000  -0.5000000  -0.0477843), wk =   0.0625000
        k(   16) = (  -0.5000000  -0.5000000   0.0000000), wk =   0.0156250
        k(   17) = (  -0.5000000  -0.5000000   0.0238921), wk =   0.0312500
        k(   18) = (  -0.5000000  -0.5000000  -0.0477843), wk =   0.0156250

     Check: negative/imaginary core charge=   -0.000006    0.000000

     Initial potential from superposition of free atoms

     starting charge  295.99426, renormalised to  296.00000
     Number of +U iterations with fixed ns =  0
     Starting occupations:
 --- enter write_ns ---
 LDA+U parameters:
U(  1) =   3.1200   J(  1) =   0.7000   B(  1) =   0.0803
U(  2) =   3.1200   J(  2) =   0.7000   B(  2) =   0.0803
atom    1   Tr[ns(na)] (up, down, total) =   5.00000  0.00000  5.00000
   spin  1
    eigenvalues:
  1.000  1.000  1.000  1.000  1.000
    eigenvectors:
  1.000  0.000  0.000  0.000  0.000
  0.000  1.000  0.000  0.000  0.000
  0.000  0.000  1.000  0.000  0.000
  0.000  0.000  0.000  1.000  0.000
  0.000  0.000  0.000  0.000  1.000
    occupations:
  1.000  0.000  0.000  0.000  0.000
  0.000  1.000  0.000  0.000  0.000
  0.000  0.000  1.000  0.000  0.000
  0.000  0.000  0.000  1.000  0.000
  0.000  0.000  0.000  0.000  1.000
   spin  2
    eigenvalues:
  0.000  0.000  0.000  0.000  0.000
    eigenvectors:
  1.000  0.000  0.000  0.000  0.000
  0.000  1.000  0.000  0.000  0.000
  0.000  0.000  1.000  0.000  0.000
  0.000  0.000  0.000  1.000  0.000
  0.000  0.000  0.000  0.000  1.000
    occupations:
  0.000  0.000  0.000  0.000  0.000
  0.000  0.000  0.000  0.000  0.000
  0.000  0.000  0.000  0.000  0.000
  0.000  0.000  0.000  0.000  0.000
  0.000  0.000  0.000  0.000  0.000
atomic mag. moment =     5.000000
atom    2   Tr[ns(na)] (up, down, total) =   5.00000  0.00000  5.00000
   spin  1
    eigenvalues:
  1.000  1.000  1.000  1.000  1.000
    eigenvectors:
  1.000  0.000  0.000  0.000  0.000
  0.000  1.000  0.000  0.000  0.000
  0.000  0.000  1.000  0.000  0.000
  0.000  0.000  0.000  1.000  0.000
  0.000  0.000  0.000  0.000  1.000
    occupations:
  1.000  0.000  0.000  0.000  0.000
  0.000  1.000  0.000  0.000  0.000
  0.000  0.000  1.000  0.000  0.000
  0.000  0.000  0.000  1.000  0.000
  0.000  0.000  0.000  0.000  1.000
   spin  2
    eigenvalues:
  0.000  0.000  0.000  0.000  0.000
    eigenvectors:
  1.000  0.000  0.000  0.000  0.000
  0.000  1.000  0.000  0.000  0.000
  0.000  0.000  1.000  0.000  0.000
  0.000  0.000  0.000  1.000  0.000
  0.000  0.000  0.000  0.000  1.000
    occupations:
  0.000  0.000  0.000  0.000  0.000
  0.000  0.000  0.000  0.000  0.000
  0.000  0.000  0.000  0.000  0.000
  0.000  0.000  0.000  0.000  0.000
  0.000  0.000  0.000  0.000  0.000
atomic mag. moment =     5.000000
atom    3   Tr[ns(na)] (up, down, total) =   5.00000  0.00000  5.00000
   spin  1
    eigenvalues:
  1.000  1.000  1.000  1.000  1.000
    eigenvectors:
  1.000  0.000  0.000  0.000  0.000
  0.000  1.000  0.000  0.000  0.000
  0.000  0.000  1.000  0.000  0.000
  0.000  0.000  0.000  1.000  0.000
[...]
  1.000  0.000  0.000  0.000  0.000
  0.000  0.000  0.000  0.000  1.000
    occupations:
  0.072 -0.000 -0.000  0.000  0.000
 -0.000  0.081 -0.000  0.000  0.000
 -0.000 -0.000  0.081  0.000  0.000
  0.000  0.000  0.000  0.050 -0.000
  0.000  0.000  0.000 -0.000  0.117
   spin  2
    eigenvalues:
  1.003  1.003  1.003  1.004  1.004
    eigenvectors:
  0.000  0.000  0.000  1.000  0.000
  0.000  0.345  0.655  0.000  0.000
  0.000  0.655  0.345  0.000  0.000
  0.000  0.000  0.000  0.000  1.000
  1.000  0.000  0.000  0.000  0.000
    occupations:
  1.004 -0.000 -0.000  0.000  0.000
 -0.000  1.003 -0.000  0.000  0.000
 -0.000 -0.000  1.003  0.000  0.000
  0.000  0.000  0.000  1.004 -0.000
  0.000  0.000  0.000 -0.000  1.003
atomic mag. moment =    -4.616353
N of occupied +U levels =   43.347339
 --- exit write_ns ---

     total energy              =  -14687.36524253 Ry
     Harris-Foulkes estimate   =  -14685.89251786 Ry
     estimated scf accuracy    <      11.47433392 Ry

     total magnetization       =    10.08 Bohr mag/cell
     absolute magnetization    =    41.57 Bohr mag/cell

     iteration #  2     ecut=    45.00 Ry     beta= 0.10
     Davidson diagonalization with overlap
     ethr =  3.88E-03,  avg # of iterations =  1.0

[...]

     iteration # 11     ecut=    45.00 Ry     beta= 0.10
     Davidson diagonalization with overlap
     c_bands:  3 eigenvalues not converged
     ethr =  1.74E-05,  avg # of iterations =  2.9

[...]

     total energy              =  -14694.08529685 Ry
     Harris-Foulkes estimate   =  -14694.08529584 Ry
     estimated scf accuracy    <       0.00000118 Ry

[...]

     iteration # 28     ecut=    45.00 Ry     beta= 0.10
     Davidson diagonalization with overlap
     ethr =  3.99E-10,  avg # of iterations =  2.0

     Magnetic moment per site:
     atom:    1    charge:   13.5468    magn:    4.2515    constr:    0.0000
     atom:    2    charge:   13.5484    magn:    4.2366    constr:    0.0000
     atom:    3    charge:   13.5450    magn:    4.2637    constr:    0.0000
     atom:    4    charge:   13.5440    magn:   -4.2685    constr:    0.0000
     atom:    5    charge:   13.5446    magn:    4.2598    constr:    0.0000
     atom:    6    charge:   13.5460    magn:    4.2516    constr:    0.0000
     atom:    7    charge:   13.5452    magn:   -4.2592    constr:    0.0000
     atom:    8    charge:   13.5454    magn:   -4.2575    constr:    0.0000
     atom:    9    charge:    9.1378    magn:    0.0379    constr:    0.0000
     atom:   10    charge:    9.1394    magn:    0.0452    constr:    0.0000
     atom:   11    charge:    9.1398    magn:    0.0452    constr:    0.0000
     atom:   12    charge:    9.1379    magn:    0.0362    constr:    0.0000
     atom:   13    charge:    9.1394    magn:    0.0380    constr:    0.0000
     atom:   14    charge:    9.1399    magn:   -0.0379    constr:    0.0000
     atom:   15    charge:    9.1388    magn:   -0.0392    constr:    0.0000
     atom:   16    charge:    9.1400    magn:    0.0415    constr:    0.0000
     atom:   17    charge:    9.1392    magn:    0.0398    constr:    0.0000
     atom:   18    charge:    9.1400    magn:    0.0421    constr:    0.0000
     atom:   19    charge:    9.1391    magn:    0.0432    constr:    0.0000
     atom:   20    charge:    9.1384    magn:   -0.0474    constr:    0.0000
     atom:   21    charge:    9.1389    magn:   -0.0445    constr:    0.0000
     atom:   22    charge:    9.1388    magn:   -0.0429    constr:    0.0000
     atom:   23    charge:    9.1394    magn:   -0.0444    constr:    0.0000
     atom:   24    charge:    9.1382    magn:    0.0395    constr:    0.0000

     End of self-consistent calculation
 --- enter write_ns ---
 LDA+U parameters:
U(  1) =   3.1200   J(  1) =   0.7000   B(  1) =   0.0803
U(  2) =   3.1200   J(  2) =   0.7000   B(  2) =   0.0803
atom    1   Tr[ns(na)] (up, down, total) =   4.97467  0.72564  5.70031
   spin  1
    eigenvalues:
  0.985  0.994  0.994  0.999  1.003
    eigenvectors:
  0.000  0.000  0.000  1.000  0.000
  0.000  0.302  0.698  0.000  0.000
  0.000  0.698  0.302  0.000  0.000
  0.000  0.000  0.000  0.000  1.000
  1.000  0.000  0.000  0.000  0.000
    occupations:
  0.999 -0.000 -0.000  0.000  0.000
 -0.000  0.994 -0.000  0.000  0.000
 -0.000 -0.000  0.994  0.000  0.000
  0.000  0.000  0.000  1.003 -0.000
  0.000  0.000  0.000 -0.000  0.985
   spin  2
    eigenvalues:
  0.059  0.129  0.143  0.143  0.251
    eigenvectors:
  0.000  1.000  0.000  0.000  0.000
  0.000  0.000  0.276  0.724  0.000
  0.000  0.000  0.724  0.276  0.000
  1.000  0.000  0.000  0.000  0.000
  0.000  0.000  0.000  0.000  1.000
    occupations:
  0.129 -0.000 -0.000  0.000  0.000
 -0.000  0.143 -0.000  0.000  0.000
 -0.000 -0.000  0.143  0.000  0.000
  0.000  0.000  0.000  0.059 -0.000
  0.000  0.000  0.000 -0.000  0.251
atomic mag. moment =     4.249035
atom    2   Tr[ns(na)] (up, down, total) =   4.97496  0.74092  5.71588
   spin  1
    eigenvalues:
  0.986  0.994  0.994  0.998  1.003
    eigenvectors:
  0.000  0.000  0.000  1.000  0.000
  0.000  0.301  0.699  0.000  0.000
  0.000  0.699  0.301  0.000  0.000
  0.000  0.000  0.000  0.000  1.000
  1.000  0.000  0.000  0.000  0.000
    occupations:
  0.998 -0.000 -0.000  0.000  0.000
 -0.000  0.994 -0.000  0.000  0.000
 -0.000 -0.000  0.994  0.000  0.000
  0.000  0.000  0.000  1.003 -0.000
  0.000  0.000  0.000 -0.000  0.986
   spin  2
    eigenvalues:
  0.058  0.136  0.150  0.150  0.248
    eigenvectors:
  0.000  1.000  0.000  0.000  0.000
  0.000  0.000  0.315  0.685  0.000
  0.000  0.000  0.685  0.315  0.000
  1.000  0.000  0.000  0.000  0.000
  0.000  0.000  0.000  0.000  1.000
    occupations:
  0.136 -0.000 -0.000  0.000  0.000
 -0.000  0.150 -0.000  0.000  0.000
 -0.000 -0.000  0.150  0.000  0.000
  0.000  0.000  0.000  0.058 -0.000
  0.000  0.000  0.000 -0.000  0.248
atomic mag. moment =     4.234042
atom    3   Tr[ns(na)] (up, down, total) =   4.97644  0.71498  5.69142
   spin  1
    eigenvalues:
  0.985  0.994  0.994  1.000  1.003
    eigenvectors:
  0.000  0.000  0.000  1.000  0.000
  0.000  0.341  0.659  0.000  0.000
  0.000  0.659  0.341  0.000  0.000
  0.000  0.000  0.000  0.000  1.000
  1.000  0.000  0.000  0.000  0.000
    occupations:
  1.000 -0.000 -0.000  0.000  0.000
 -0.000  0.994 -0.000  0.000  0.000
 -0.000 -0.000  0.994  0.000  0.000
  0.000  0.000  0.000  1.003 -0.000
  0.000  0.000  0.000 -0.000  0.985
   spin  2
    eigenvalues:
  0.059  0.130  0.143  0.143  0.241
    eigenvectors:
  0.000  1.000  0.000  0.000  0.000
  0.000  0.000  0.306  0.694  0.000
  0.000  0.000  0.694  0.306  0.000
  1.000  0.000  0.000  0.000  0.000
  0.000  0.000  0.000  0.000  1.000
    occupations:
  0.130 -0.000 -0.000  0.000  0.000
 -0.000  0.143 -0.000  0.000  0.000
 -0.000 -0.000  0.143  0.000  0.000
  0.000  0.000  0.000  0.059 -0.000
  0.000  0.000  0.000 -0.000  0.241
atomic mag. moment =     4.261463
atom    4   Tr[ns(na)] (up, down, total) =   0.71474  4.97511  5.68985
   spin  1
    eigenvalues:
  0.056  0.120  0.146  0.146  0.246
    eigenvectors:
  0.000  1.000  0.000  0.000  0.000
  0.000  0.000  0.305  0.695  0.000
  0.000  0.000  0.695  0.305  0.000
  1.000  0.000  0.000  0.000  0.000
  0.000  0.000  0.000  0.000  1.000
    occupations:
  0.120 -0.000 -0.000  0.000  0.000
 -0.000  0.146 -0.000  0.000  0.000
 -0.000 -0.000  0.146  0.000  0.000
  0.000  0.000  0.000  0.056 -0.000
  0.000  0.000  0.000 -0.000  0.246
   spin  2
    eigenvalues:
  0.985  0.994  0.994  0.999  1.003
    eigenvectors:
  0.000  0.000  0.000  1.000  0.000
  0.000  0.333  0.667  0.000  0.000
  0.000  0.667  0.333  0.000  0.000
  0.000  0.000  0.000  0.000  1.000
  1.000  0.000  0.000  0.000  0.000
    occupations:
  0.999 -0.000 -0.000  0.000  0.000
 -0.000  0.994 -0.000  0.000  0.000
 -0.000 -0.000  0.994  0.000  0.000
  0.000  0.000  0.000  1.003 -0.000
  0.000  0.000  0.000 -0.000  0.985
atomic mag. moment =    -4.260368
atom    5   Tr[ns(na)] (up, down, total) =   4.97627  0.71750  5.69377
   spin  1
    eigenvalues:
  0.986  0.995  0.995  0.998  1.003
    eigenvectors:
  0.000  0.000  0.000  1.000  0.000
  0.000  0.283  0.717  0.000  0.000
  0.000  0.717  0.283  0.000  0.000
  0.000  0.000  0.000  0.000  1.000
  1.000  0.000  0.000  0.000  0.000
    occupations:
  0.998 -0.000 -0.000  0.000  0.000
 -0.000  0.995 -0.000  0.000  0.000
 -0.000 -0.000  0.995  0.000  0.000
  0.000  0.000  0.000  1.003 -0.000
  0.000  0.000  0.000 -0.000  0.986
   spin  2
    eigenvalues:
  0.059  0.128  0.144  0.144  0.243
    eigenvectors:
  0.000  1.000  0.000  0.000  0.000
  0.000  0.000  0.359  0.641  0.000
  0.000  0.000  0.641  0.359  0.000
  1.000  0.000  0.000  0.000  0.000
  0.000  0.000  0.000  0.000  1.000
    occupations:
  0.128 -0.000 -0.000  0.000  0.000
 -0.000  0.144 -0.000  0.000  0.000
 -0.000 -0.000  0.144  0.000  0.000
  0.000  0.000  0.000  0.059 -0.000
  0.000  0.000  0.000 -0.000  0.243
atomic mag. moment =     4.258773
atom    6   Tr[ns(na)] (up, down, total) =   4.97520  0.72437  5.69957
   spin  1
    eigenvalues:
  0.985  0.995  0.995  0.998  1.003
    eigenvectors:
  0.000  0.000  0.000  1.000  0.000
  0.000  0.367  0.633  0.000  0.000
  0.000  0.633  0.367  0.000  0.000
  0.000  0.000  0.000  0.000  1.000
  1.000  0.000  0.000  0.000  0.000
    occupations:
  0.998 -0.000 -0.000  0.000  0.000
 -0.000  0.995 -0.000  0.000  0.000
 -0.000 -0.000  0.995  0.000  0.000
  0.000  0.000  0.000  1.003 -0.000
  0.000  0.000  0.000 -0.000  0.985
   spin  2
    eigenvalues:
  0.059  0.126  0.146  0.146  0.248
    eigenvectors:
  0.000  1.000  0.000  0.000  0.000
  0.000  0.000  0.349  0.651  0.000
  0.000  0.000  0.651  0.349  0.000
  1.000  0.000  0.000  0.000  0.000
  0.000  0.000  0.000  0.000  1.000
    occupations:
  0.126 -0.000 -0.000  0.000  0.000
 -0.000  0.146 -0.000  0.000  0.000
 -0.000 -0.000  0.146  0.000  0.000
  0.000  0.000  0.000  0.059 -0.000
  0.000  0.000  0.000 -0.000  0.248
atomic mag. moment =     4.250826
atom    7   Tr[ns(na)] (up, down, total) =   0.72340  4.97594  5.69935
   spin  1
    eigenvalues:
  0.058  0.126  0.147  0.147  0.246
    eigenvectors:
  0.000  1.000  0.000  0.000  0.000
  0.000  0.000  0.279  0.721  0.000
  0.000  0.000  0.721  0.279  0.000
  1.000  0.000  0.000  0.000  0.000
  0.000  0.000  0.000  0.000  1.000
    occupations:
  0.126 -0.000 -0.000  0.000  0.000
 -0.000  0.147 -0.000  0.000  0.000
 -0.000 -0.000  0.147  0.000  0.000
  0.000  0.000  0.000  0.058 -0.000
  0.000  0.000  0.000 -0.000  0.246
   spin  2
    eigenvalues:
  0.986  0.995  0.995  0.998  1.003
    eigenvectors:
  0.000  0.000  0.000  1.000  0.000
  0.000  0.265  0.735  0.000  0.000
  0.000  0.735  0.265  0.000  0.000
  0.000  0.000  0.000  0.000  1.000
  1.000  0.000  0.000  0.000  0.000
    occupations:
  0.998 -0.000 -0.000  0.000  0.000
 -0.000  0.995 -0.000  0.000  0.000
 -0.000 -0.000  0.995  0.000  0.000
  0.000  0.000  0.000  1.003 -0.000
  0.000  0.000  0.000 -0.000  0.986
atomic mag. moment =    -4.252544
atom    8   Tr[ns(na)] (up, down, total) =   0.72415  4.97511  5.69926
   spin  1
    eigenvalues:
  0.058  0.131  0.145  0.145  0.247
    eigenvectors:
  0.000  1.000  0.000  0.000  0.000
  0.000  0.000  0.220  0.780  0.000
  0.000  0.000  0.780  0.220  0.000
  1.000  0.000  0.000  0.000  0.000
  0.000  0.000  0.000  0.000  1.000
    occupations:
  0.131 -0.000 -0.000  0.000  0.000
 -0.000  0.145 -0.000  0.000  0.000
 -0.000 -0.000  0.145  0.000  0.000
  0.000  0.000  0.000  0.058 -0.000
  0.000  0.000  0.000 -0.000  0.247
   spin  2
    eigenvalues:
  0.986  0.994  0.994  0.998  1.003
    eigenvectors:
  0.000  0.000  0.000  1.000  0.000
  0.000  0.334  0.666  0.000  0.000
  0.000  0.666  0.334  0.000  0.000
  0.000  0.000  0.000  0.000  1.000
  1.000  0.000  0.000  0.000  0.000
    occupations:
  0.998 -0.000 -0.000  0.000  0.000
 -0.000  0.994 -0.000  0.000  0.000
 -0.000 -0.000  0.994  0.000  0.000
  0.000  0.000  0.000  1.003 -0.000
  0.000  0.000  0.000 -0.000  0.986
atomic mag. moment =    -4.250963
N of occupied +U levels =   45.589400
 --- exit write_ns ---

 ------ SPIN UP ------------

          k = 0.0000 0.0000 0.0000 ( 14071 PWs)   bands (ev):

   -67.0548 -67.0515 -67.0136 -67.0020 -66.9535 -62.5065 -62.4187 -62.4151
   -35.8105 -35.8045 -35.7776 -35.7776 -35.7758 -35.7758 -35.7752 -35.7670
   -35.7337 -35.7337 -35.7207 -35.7207 -35.7074 -35.6786 -35.6786 -31.3296
   -31.3296 -31.3170 -31.2399 -31.2399 -31.2364 -31.2364 -31.2363 -31.2333
     5.5893   5.7055   5.7970   6.1542   6.2123   6.7850   6.8807   7.4044
     8.0415   8.1922   8.2189   8.2255   8.2763   8.3516   8.4315   8.5167
     8.5404   8.6055   8.6526   8.7172   8.8105   8.9887   8.9969   9.0811
     9.0851   9.1742   9.2129   9.2252   9.3471   9.4767   9.6351   9.7088
     9.7101   9.7286   9.8353   9.9006   9.9374   9.9374   9.9663   9.9826
     9.9981   9.9981  10.0049  10.0049  10.0771  10.1051  10.1493  10.1493
    10.1646  10.1646  10.2822  10.3113  10.3113  10.3181  10.3181  10.3630
    10.3630  10.3644  10.3829  10.3829  10.4118  10.4178  10.4178  10.4381
    10.4381  10.4736  10.4786  10.5087  10.5087  10.7393  10.7599  10.7599
    10.7710  10.8607  10.8745  10.8745  10.8896  10.9855  11.0498  11.0951
    11.1475  11.1772  11.1772  11.2684  11.3452  11.3452  11.3615  11.3942
    11.4533  11.4886  11.5553  11.6376  11.6383  11.6383  11.6594  11.7497
    11.7497  11.7968  11.8417  11.8717  11.9134  11.9846  12.0281  12.0281
    12.2949  12.2980  12.2980  12.3743  12.4201  12.4201  12.5316  12.5587
    12.6828  12.6831  12.7520  12.9037  13.4262  13.6317  14.4638  15.0614
    15.8000  16.5632  16.5632  16.6165  16.6165  16.6609  16.7040  16.7575
    16.8068  16.8419  16.8419  16.8691  16.9188  17.0361  17.1970  17.2428
    17.9933  18.8689  19.2509  19.8755  19.8755  20.1882  20.1882  20.3162
    20.3162  20.9498

[...]

          k =-0.5000-0.5000 0.0000 ( 14124 PWs)   bands (ev):

[...]

 ------ SPIN DOWN ----------

[...]

          k = 0.2500-0.5000-0.0478 ( 14104 PWs)   bands (ev):

[...]

          k =-0.5000-0.5000-0.0478 ( 14176 PWs)   bands (ev):

   -67.1238 -67.0256 -67.0246 -62.4410 -62.4346 -62.4082 -62.3980 -62.3609
   -35.8804 -35.8560 -35.8560 -35.7823 -35.7819 -35.7595 -35.7595 -35.7582
   -35.7582 -31.2782 -31.2782 -31.2730 -31.2730 -31.2558 -31.2473 -31.2438
   -31.2438 -31.2334 -31.2334 -31.2264 -31.2171 -31.1959 -31.1959 -31.1830
     7.9395   7.9399   8.0143   8.0675   8.3491   8.3493   8.4957   8.4975
     8.7635   8.7639   8.8257   8.8657   9.0625   9.0625   9.0880   9.0880
     9.1179   9.1431   9.1520   9.1562   9.1750   9.1750   9.1901   9.1901
     9.3693   9.3693   9.3776   9.3776   9.6387   9.6387   9.6594   9.6594
     9.6725   9.6725   9.6754   9.6754   9.6863   9.7036   9.7040   9.7935
     9.7935  10.0815  10.0815  10.1191  10.1191  10.3676  10.4363  10.4445
    10.4840  10.4889  10.5802  10.5802  10.6851  10.6851  10.9508  10.9526
    10.9790  11.0034  11.0817  11.1150  11.1150  11.1766  11.1790  11.1882
    11.1904  11.2455  11.2455  11.6943  11.7260  11.7260  11.7517  11.7550
    11.7551  11.7584  11.7748  11.7800  11.7866  11.8108  11.8395  11.8405
    11.8450  11.8517  11.8658  11.8718  11.8934  11.9095  11.9775  11.9854
    11.9873  12.0287  12.0627  12.0742  12.0742  12.0832  12.0848  13.1889
    13.1988  13.2141  13.2144  13.2439  13.7341  13.7341  13.7806  13.7806
    14.1537  14.1537  14.3154  14.3154  14.4907  14.4907  14.9913  14.9913
    15.6444  15.6444  16.3433  16.3552  16.3552  16.4288  16.4307  16.5612
    16.6717  16.7309  16.7360  16.8548  16.9482  16.9482  17.3373  17.3373
    17.4919  17.5005  17.5043  17.5753  17.5753  17.6119  17.8213  17.8236
    17.8639  17.8777  17.8782  17.9030  17.9142  17.9210  18.1659  18.4565
    18.4566  18.5038

     the Fermi energy is    15.0632 ev

!    total energy              =  -14694.08530258 Ry
     Harris-Foulkes estimate   =  -14694.08529822 Ry
     estimated scf accuracy    <       0.00000045 Ry

     total all-electron energy =   -626921.681025 Ry

     The total energy is the sum of the following terms:

     one-electron contribution =    -729.76208491 Ry
     hartree contribution      =     661.40766615 Ry
     xc contribution           =    -737.70753438 Ry
     ewald contribution        =   -2186.64874840 Ry
     Hubbard energy            =       0.44080054 Ry
     one-center paw contrib.   =  -11701.81540157 Ry

     total magnetization       =     8.76 Bohr mag/cell
     absolute magnetization    =    37.43 Bohr mag/cell

     convergence has been achieved in  28 iterations

     Writing output data file mnau2.save/

     General routines

     Parallel routines

     Hubbard U routines

   This run was terminated on:  17:33:47   1Apr2019

   JOB DONE.