     Program PWSCF v.6.3MaX starts on  1Apr2019 at 15:11:37

     R & G space division:  proc/nbgrp/npool/nimage =      32
     Waiting for input...
     Reading input from standard input

     Current dimensions of program PWSCF are:
     Max number of different atomic species (ntypx) = 10
     Max number of k-points (npk) =  40000
     Max angular momentum in pseudopotentials (lmaxx) =  3
     Message from routine read_upf::
     Pseudo file ./pseudo/Mn.pbe-spn-kjpaw_psl.0.3.1.UPF has been successfully fixed on the fly.
To avoid this message in the future you can permanently fix
 your pseudo files following instructions given in:
               file Mn.pbe-spn-kjpaw_psl.0.3.1.UPF: wavefunction(s)  3P 3D renormalized
     Message from routine read_upf::
     Pseudo file ./pseudo/Mn.pbe-spn-kjpaw_psl.0.3.1.UPF has been successfully fixed on the fly.
To avoid this message in the future you can permanently fix
 your pseudo files following instructions given in:
               file Mn.pbe-spn-kjpaw_psl.0.3.1.UPF: wavefunction(s)  3P 3D renormalized
     Message from routine read_upf::
     Pseudo file ./pseudo/Au.pbe-dn-kjpaw_psl.0.1.UPF has been successfully fixed on the fly.
To avoid this message in the future you can permanently fix
 your pseudo files following instructions given in:
               file Au.pbe-dn-kjpaw_psl.0.1.UPF: wavefunction(s)  6S 6P 5D renormalized

     bravais-lattice index     =            0
     lattice parameter (alat)  =       6.4153  a.u.
     unit-cell volume          =    2762.7331 (a.u.)^3
     number of atoms/cell      =           24
     number of atomic types    =            3
     number of electrons       =       296.00
     number of Kohn-Sham states=          178
     kinetic-energy cutoff     =      45.0000  Ry
     charge density cutoff     =     400.0000  Ry
     convergence threshold     =      1.0E-06
     mixing beta               =       0.1000
     number of iterations used =            8  plain     mixing
     Exchange-correlation      = SLA PW PBX PBC ( 1  4  3  4 0 0)

     celldm(1)=   6.415315  celldm(2)=   0.000000  celldm(3)=   0.000000
     celldm(4)=   0.000000  celldm(5)=   0.000000  celldm(6)=   0.000000

     crystal axes: (cart. coord. in units of alat)
               a(1) = (   1.000000   0.000000   0.000000 )
               a(2) = (   0.000000   1.000000   0.000000 )
               a(3) = (   0.000000   0.000000  10.463692 )

     reciprocal axes: (cart. coord. in units 2 pi/alat)
               b(1) = (  1.000000  0.000000  0.000000 )
               b(2) = (  0.000000  1.000000  0.000000 )
               b(3) = (  0.000000  0.000000  0.095569 )

     PseudoPot. # 1 for Mn read from file:
     ./pseudo/Mn.pbe-spn-kjpaw_psl.0.3.1.UPF
     MD5 check sum: 7eef95dd2aae66803482eea66ebeebf1
     Pseudo is Projector augmented-wave + core cor, Zval = 15.0
     Generated using "atomic" code by A. Dal Corso v.5.0.99 svn rev. 10869
     Shape of augmentation charge: PSQ
     Using radial grid of 1187 points,  6 beta functions with:
                l(1) =   0
                l(2) =   0
                l(3) =   1
                l(4) =   1
                l(5) =   2
                l(6) =   2
     Q(r) pseudized with 0 coefficients

     PseudoPot. # 2 for Mn read from file:
     ./pseudo/Mn.pbe-spn-kjpaw_psl.0.3.1.UPF
     MD5 check sum: 7eef95dd2aae66803482eea66ebeebf1
     Pseudo is Projector augmented-wave + core cor, Zval = 15.0
     Generated using "atomic" code by A. Dal Corso v.5.0.99 svn rev. 10869
     Shape of augmentation charge: PSQ
     Using radial grid of 1187 points,  6 beta functions with:
                l(1) =   0
                l(2) =   0
                l(3) =   1
                l(4) =   1
                l(5) =   2
                l(6) =   2
     Q(r) pseudized with 0 coefficients

     PseudoPot. # 3 for Au read from file:
     ./pseudo/Au.pbe-dn-kjpaw_psl.0.1.UPF
     MD5 check sum: 5c9b92683623e7ae2ab3f8e525febab6
     Pseudo is Projector augmented-wave + core cor, Zval = 11.0
     Generated using "atomic" code by A. Dal Corso v.5.0.2 svn rev. 9415
     Shape of augmentation charge: PSQ
     Using radial grid of 1279 points,  6 beta functions with:
                l(1) =   0
                l(2) =   0
                l(3) =   1
                l(4) =   1
                l(5) =   2
                l(6) =   2
     Q(r) pseudized with 0 coefficients

     atomic species   valence    mass     pseudopotential
        Mn1           15.00    54.93800     Mn( 1.00)
        Mn2           15.00    54.93800     Mn( 1.00)
        Au            11.00   196.96600     Au( 1.00)

     Starting magnetic structure
     atomic species   magnetization
        Mn1          0.800
        Mn2         -0.800
        Au           0.000

     Full LDA+U calculation (l_max = 2) with parameters (eV):
     U(  1) =   3.1200   J(  1) =   0.7000   B(  1) =   0.0803
     U(  2) =   3.1200   J(  2) =   0.7000   B(  2) =   0.0803

     16 Sym. Ops., with inversion, found ( 8 have fractional translation)

   Cartesian axes

     site n.     atom                  positions (alat units)
         1           Mn1 tau(   1) = (   0.0000000   0.0000000   0.0000000  )
         2           Mn1 tau(   2) = (   0.5000000   0.5000000   1.3079615  )
         3           Mn2 tau(   3) = (   0.0000000   0.0000000   2.6159231  )
         4           Mn1 tau(   4) = (   0.5000000   0.5000000   3.9238846  )
         5           Mn1 tau(   5) = (   0.0000000   0.0000000   5.2318461  )
         6           Mn2 tau(   6) = (   0.5000000   0.5000000   6.5398077  )
         7           Mn1 tau(   7) = (   0.0000000   0.0000000   7.8477692  )
         8           Mn2 tau(   8) = (   0.5000000   0.5000000   9.1557307  )
         9           Au  tau(   9) = (   0.5000000   0.5000000   0.4185477  )
        10           Au  tau(  10) = (   0.0000000   0.0000000   0.8894138  )
        11           Au  tau(  11) = (   0.0000000   0.0000000   1.7265092  )
        12           Au  tau(  12) = (   0.5000000   0.5000000   2.1973754  )
        13           Au  tau(  13) = (   0.5000000   0.5000000   3.0344708  )
        14           Au  tau(  14) = (   0.0000000   0.0000000   3.5053369  )
        15           Au  tau(  15) = (   0.0000000   0.0000000   4.3424323  )
        16           Au  tau(  16) = (   0.5000000   0.5000000   4.8132984  )
        17           Au  tau(  17) = (   0.5000000   0.5000000   5.6503938  )
        18           Au  tau(  18) = (   0.0000000   0.0000000   6.1212600  )
        19           Au  tau(  19) = (   0.0000000   0.0000000   6.9583554  )
        20           Au  tau(  20) = (   0.5000000   0.5000000   7.4292215  )
        21           Au  tau(  21) = (   0.5000000   0.5000000   8.2663169  )
        22           Au  tau(  22) = (   0.0000000   0.0000000   8.7371830  )
        23           Au  tau(  23) = (   0.0000000   0.0000000   9.5742784  )
        24           Au  tau(  24) = (   0.5000000   0.5000000  10.0451446  )

     number of k points=    40 (tetrahedron method)
                       cart. coord. in units 2pi/alat
        k(    1) = (   0.0000000   0.0000000   0.0000000), wk =   0.0046296
        k(    2) = (   0.0000000   0.0000000   0.0159281), wk =   0.0092593
        k(    3) = (   0.0000000   0.0000000   0.0318562), wk =   0.0092593
        k(    4) = (   0.0000000   0.0000000  -0.0477843), wk =   0.0046296
        k(    5) = (   0.0000000   0.1666667   0.0000000), wk =   0.0185185
        k(    6) = (   0.0000000   0.1666667   0.0159281), wk =   0.0370370
        k(    7) = (   0.0000000   0.1666667   0.0318562), wk =   0.0370370
        k(    8) = (   0.0000000   0.1666667  -0.0477843), wk =   0.0185185
        k(    9) = (   0.0000000   0.3333333   0.0000000), wk =   0.0185185
        k(   10) = (   0.0000000   0.3333333   0.0159281), wk =   0.0370370
        k(   11) = (   0.0000000   0.3333333   0.0318562), wk =   0.0370370
        k(   12) = (   0.0000000   0.3333333  -0.0477843), wk =   0.0185185
        k(   13) = (   0.0000000  -0.5000000   0.0000000), wk =   0.0092593
        k(   14) = (   0.0000000  -0.5000000   0.0159281), wk =   0.0185185
        k(   15) = (   0.0000000  -0.5000000   0.0318562), wk =   0.0185185
        k(   16) = (   0.0000000  -0.5000000  -0.0477843), wk =   0.0092593
        k(   17) = (   0.1666667   0.1666667   0.0000000), wk =   0.0185185
        k(   18) = (   0.1666667   0.1666667   0.0159281), wk =   0.0370370
        k(   19) = (   0.1666667   0.1666667   0.0318562), wk =   0.0370370
        k(   20) = (   0.1666667   0.1666667  -0.0477843), wk =   0.0185185
        k(   21) = (   0.1666667   0.3333333   0.0000000), wk =   0.0370370
        k(   22) = (   0.1666667   0.3333333   0.0159281), wk =   0.0740741
        k(   23) = (   0.1666667   0.3333333   0.0318562), wk =   0.0740741
        k(   24) = (   0.1666667   0.3333333  -0.0477843), wk =   0.0370370
        k(   25) = (   0.1666667  -0.5000000   0.0000000), wk =   0.0185185
        k(   26) = (   0.1666667  -0.5000000   0.0159281), wk =   0.0370370
        k(   27) = (   0.1666667  -0.5000000   0.0318562), wk =   0.0370370
        k(   28) = (   0.1666667  -0.5000000  -0.0477843), wk =   0.0185185
        k(   29) = (   0.3333333   0.3333333   0.0000000), wk =   0.0185185
        k(   30) = (   0.3333333   0.3333333   0.0159281), wk =   0.0370370
        k(   31) = (   0.3333333   0.3333333   0.0318562), wk =   0.0370370
        k(   32) = (   0.3333333   0.3333333  -0.0477843), wk =   0.0185185
        k(   33) = (   0.3333333  -0.5000000   0.0000000), wk =   0.0185185
        k(   34) = (   0.3333333  -0.5000000   0.0159281), wk =   0.0370370
        k(   35) = (   0.3333333  -0.5000000   0.0318562), wk =   0.0370370
        k(   36) = (   0.3333333  -0.5000000  -0.0477843), wk =   0.0185185
        k(   37) = (  -0.5000000  -0.5000000   0.0000000), wk =   0.0046296
        k(   38) = (  -0.5000000  -0.5000000   0.0159281), wk =   0.0092593
        k(   39) = (  -0.5000000  -0.5000000   0.0318562), wk =   0.0092593
        k(   40) = (  -0.5000000  -0.5000000  -0.0477843), wk =   0.0046296

     Check: negative/imaginary core charge=   -0.000006    0.000000

     Initial potential from superposition of free atoms

     starting charge  295.99426, renormalised to  296.00000
     Number of +U iterations with fixed ns =  0
     Starting occupations:
 --- enter write_ns ---
 LDA+U parameters:
U(  1) =   3.1200   J(  1) =   0.7000   B(  1) =   0.0803
U(  2) =   3.1200   J(  2) =   0.7000   B(  2) =   0.0803
atom    1   Tr[ns(na)] (up, down, total) =   5.00000  0.00000  5.00000
   spin  1
    eigenvalues:
  1.000  1.000  1.000  1.000  1.000
    eigenvectors:
  1.000  0.000  0.000  0.000  0.000
  0.000  1.000  0.000  0.000  0.000
  0.000  0.000  1.000  0.000  0.000
  0.000  0.000  0.000  1.000  0.000
  0.000  0.000  0.000  0.000  1.000
    occupations:
  1.000  0.000  0.000  0.000  0.000
  0.000  1.000  0.000  0.000  0.000
  0.000  0.000  1.000  0.000  0.000
  0.000  0.000  0.000  1.000  0.000
  0.000  0.000  0.000  0.000  1.000
   spin  2
    eigenvalues:
  0.000  0.000  0.000  0.000  0.000
    eigenvectors:
[...]
   spin  1
    eigenvalues:
  0.052  0.069  0.078  0.078  0.120
    eigenvectors:
  0.000  1.000  0.000  0.000  0.000
  0.000  0.000  0.113  0.887  0.000
  0.000  0.000  0.887  0.113  0.000
  1.000  0.000  0.000  0.000  0.000
  0.000  0.000  0.000  0.000  1.000
    occupations:
  0.069 -0.000 -0.000  0.000  0.000
 -0.000  0.078 -0.000  0.000  0.000
 -0.000 -0.000  0.078  0.000  0.000
  0.000  0.000  0.000  0.052 -0.000
  0.000  0.000  0.000 -0.000  0.120
   spin  2
    eigenvalues:
  1.003  1.003  1.003  1.004  1.004
    eigenvectors:
  0.000  0.000  0.000  1.000  0.000
  0.000  0.098  0.902  0.000  0.000
  0.000  0.902  0.098  0.000  0.000
  0.000  0.000  0.000  0.000  1.000
  1.000  0.000  0.000  0.000  0.000
    occupations:
  1.004 -0.000 -0.000  0.000  0.000
 -0.000  1.003 -0.000  0.000  0.000
 -0.000 -0.000  1.003  0.000  0.000
  0.000  0.000  0.000  1.004 -0.000
  0.000  0.000  0.000 -0.000  1.003
atomic mag. moment =    -4.620636
N of occupied +U levels =   43.317920
 --- exit write_ns ---

     total energy              =  -14687.30238078 Ry
     Harris-Foulkes estimate   =  -14685.84196163 Ry
     estimated scf accuracy    <      11.52588569 Ry

     total magnetization       =    10.16 Bohr mag/cell
     absolute magnetization    =    41.71 Bohr mag/cell

     iteration #  2     ecut=    45.00 Ry     beta= 0.10
     Davidson diagonalization with overlap
     ethr =  3.89E-03,  avg # of iterations =  1.0

[...]

     total energy              =  -14694.01240886 Ry
     Harris-Foulkes estimate   =  -14694.01240722 Ry
     estimated scf accuracy    <       0.00000144 Ry

[...]

     iteration # 24     ecut=    45.00 Ry     beta= 0.10
     Davidson diagonalization with overlap
     ethr =  4.86E-10,  avg # of iterations =  2.1

     Magnetic moment per site:
     atom:    1    charge:   13.5457    magn:    4.2574    constr:    0.0000
     atom:    2    charge:   13.5462    magn:    4.2578    constr:    0.0000
     atom:    3    charge:   13.5471    magn:   -4.2617    constr:    0.0000
     atom:    4    charge:   13.5462    magn:    4.2578    constr:    0.0000
     atom:    5    charge:   13.5457    magn:    4.2574    constr:    0.0000
     atom:    6    charge:   13.5449    magn:   -4.2717    constr:    0.0000
     atom:    7    charge:   13.5427    magn:    4.2848    constr:    0.0000
     atom:    8    charge:   13.5449    magn:   -4.2717    constr:    0.0000
     atom:    9    charge:    9.1386    magn:    0.0326    constr:    0.0000
     atom:   10    charge:    9.1384    magn:    0.0310    constr:    0.0000
     atom:   11    charge:    9.1394    magn:    0.0390    constr:    0.0000
     atom:   12    charge:    9.1382    magn:   -0.0396    constr:    0.0000
     atom:   13    charge:    9.1382    magn:   -0.0396    constr:    0.0000
     atom:   14    charge:    9.1394    magn:    0.0390    constr:    0.0000
     atom:   15    charge:    9.1384    magn:    0.0310    constr:    0.0000
     atom:   16    charge:    9.1386    magn:    0.0326    constr:    0.0000
     atom:   17    charge:    9.1394    magn:    0.0420    constr:    0.0000
     atom:   18    charge:    9.1393    magn:   -0.0368    constr:    0.0000
     atom:   19    charge:    9.1410    magn:   -0.0356    constr:    0.0000
     atom:   20    charge:    9.1403    magn:    0.0346    constr:    0.0000
     atom:   21    charge:    9.1403    magn:    0.0346    constr:    0.0000
     atom:   22    charge:    9.1410    magn:   -0.0356    constr:    0.0000
     atom:   23    charge:    9.1393    magn:   -0.0368    constr:    0.0000
     atom:   24    charge:    9.1394    magn:    0.0420    constr:    0.0000

     End of self-consistent calculation
 --- enter write_ns ---
 LDA+U parameters:
U(  1) =   3.1200   J(  1) =   0.7000   B(  1) =   0.0803
U(  2) =   3.1200   J(  2) =   0.7000   B(  2) =   0.0803
atom    1   Tr[ns(na)] (up, down, total) =   4.97558  0.71646  5.69204
   spin  1
    eigenvalues:
  0.986  0.995  0.995  0.998  1.002
    eigenvectors:
  0.000  0.000  0.000  1.000  0.000
  0.000  0.092  0.908  0.000  0.000
  0.000  0.908  0.092  0.000  0.000
  0.000  0.000  0.000  0.000  1.000
  1.000  0.000  0.000  0.000  0.000
    occupations:
  0.998 -0.000 -0.000  0.000  0.000
 -0.000  0.995 -0.000  0.000  0.000
 -0.000 -0.000  0.995  0.000  0.000
  0.000  0.000  0.000  1.002 -0.000
  0.000  0.000  0.000 -0.000  0.986
   spin  2
    eigenvalues:
  0.066  0.121  0.140  0.140  0.250
    eigenvectors:
  0.000  1.000  0.000  0.000  0.000
  0.000  0.000  0.095  0.905  0.000
  0.000  0.000  0.905  0.095  0.000
  1.000  0.000  0.000  0.000  0.000
  0.000  0.000  0.000  0.000  1.000
    occupations:
  0.121 -0.000 -0.000  0.000  0.000
 -0.000  0.140 -0.000  0.000  0.000
 -0.000 -0.000  0.140  0.000  0.000
  0.000  0.000  0.000  0.066 -0.000
  0.000  0.000  0.000 -0.000  0.250
atomic mag. moment =     4.259120
atom    2   Tr[ns(na)] (up, down, total) =   4.97559  0.71695  5.69254
   spin  1
    eigenvalues:
  0.986  0.995  0.995  0.998  1.002
    eigenvectors:
  0.000  0.000  0.000  1.000  0.000
  0.000  0.125  0.875  0.000  0.000
  0.000  0.875  0.125  0.000  0.000
  0.000  0.000  0.000  0.000  1.000
  1.000  0.000  0.000  0.000  0.000
    occupations:
  0.998 -0.000 -0.000  0.000  0.000
 -0.000  0.995 -0.000  0.000  0.000
 -0.000 -0.000  0.995  0.000  0.000
  0.000  0.000  0.000  1.002 -0.000
  0.000  0.000  0.000 -0.000  0.986
   spin  2
    eigenvalues:
  0.066  0.120  0.141  0.141  0.250
    eigenvectors:
  0.000  1.000  0.000  0.000  0.000
  0.000  0.000  0.103  0.897  0.000
  0.000  0.000  0.897  0.103  0.000
  1.000  0.000  0.000  0.000  0.000
  0.000  0.000  0.000  0.000  1.000
    occupations:
  0.120 -0.000 -0.000  0.000  0.000
 -0.000  0.141 -0.000  0.000  0.000
 -0.000 -0.000  0.141  0.000  0.000
  0.000  0.000  0.000  0.066 -0.000
  0.000  0.000  0.000 -0.000  0.250
atomic mag. moment =     4.258637
atom    3   Tr[ns(na)] (up, down, total) =   0.71582  4.97360  5.68942
   spin  1
    eigenvalues:
  0.063  0.116  0.142  0.142  0.253
    eigenvectors:
  0.000  1.000  0.000  0.000  0.000
  0.000  0.000  0.144  0.856  0.000
  0.000  0.000  0.856  0.144  0.000
  1.000  0.000  0.000  0.000  0.000
  0.000  0.000  0.000  0.000  1.000
    occupations:
  0.116 -0.000 -0.000  0.000  0.000
 -0.000  0.142 -0.000  0.000  0.000
 -0.000 -0.000  0.142  0.000  0.000
  0.000  0.000  0.000  0.063 -0.000
  0.000  0.000  0.000 -0.000  0.253
   spin  2
    eigenvalues:
  0.985  0.994  0.994  0.998  1.002
    eigenvectors:
  0.000  0.000  0.000  1.000  0.000
  0.000  0.123  0.877  0.000  0.000
  0.000  0.877  0.123  0.000  0.000
  0.000  0.000  0.000  0.000  1.000
  1.000  0.000  0.000  0.000  0.000
    occupations:
  0.998 -0.000 -0.000  0.000  0.000
 -0.000  0.994 -0.000  0.000  0.000
 -0.000 -0.000  0.994  0.000  0.000
  0.000  0.000  0.000  1.002 -0.000
  0.000  0.000  0.000 -0.000  0.985
atomic mag. moment =    -4.257775
atom    4   Tr[ns(na)] (up, down, total) =   4.97559  0.71695  5.69254
   spin  1
    eigenvalues:
  0.986  0.995  0.995  0.998  1.002
    eigenvectors:
  0.000  0.000  0.000  1.000  0.000
  0.000  0.139  0.861  0.000  0.000
  0.000  0.861  0.139  0.000  0.000
  0.000  0.000  0.000  0.000  1.000
  1.000  0.000  0.000  0.000  0.000
    occupations:
  0.998 -0.000 -0.000  0.000  0.000
 -0.000  0.995 -0.000  0.000  0.000
 -0.000 -0.000  0.995  0.000  0.000
  0.000  0.000  0.000  1.002 -0.000
  0.000  0.000  0.000 -0.000  0.986
   spin  2
    eigenvalues:
  0.066  0.120  0.141  0.141  0.250
    eigenvectors:
  0.000  1.000  0.000  0.000  0.000
  0.000  0.000  0.150  0.850  0.000
  0.000  0.000  0.850  0.150  0.000
  1.000  0.000  0.000  0.000  0.000
  0.000  0.000  0.000  0.000  1.000
    occupations:
  0.120 -0.000 -0.000  0.000  0.000
 -0.000  0.141 -0.000  0.000  0.000
 -0.000 -0.000  0.141  0.000  0.000
  0.000  0.000  0.000  0.066 -0.000
  0.000  0.000  0.000 -0.000  0.250
atomic mag. moment =     4.258637
atom    5   Tr[ns(na)] (up, down, total) =   4.97558  0.71646  5.69204
   spin  1
    eigenvalues:
  0.986  0.995  0.995  0.998  1.002
    eigenvectors:
  0.000  0.000  0.000  1.000  0.000
  0.000  0.142  0.858  0.000  0.000
  0.000  0.858  0.142  0.000  0.000
  0.000  0.000  0.000  0.000  1.000
  1.000  0.000  0.000  0.000  0.000
    occupations:
  0.998 -0.000 -0.000  0.000  0.000
 -0.000  0.995 -0.000  0.000  0.000
 -0.000 -0.000  0.995  0.000  0.000
  0.000  0.000  0.000  1.002 -0.000
  0.000  0.000  0.000 -0.000  0.986
   spin  2
    eigenvalues:
  0.066  0.121  0.140  0.140  0.250
    eigenvectors:
  0.000  1.000  0.000  0.000  0.000
  0.000  0.000  0.108  0.892  0.000
  0.000  0.000  0.892  0.108  0.000
  1.000  0.000  0.000  0.000  0.000
  0.000  0.000  0.000  0.000  1.000
    occupations:
  0.121 -0.000 -0.000  0.000  0.000
 -0.000  0.140 -0.000  0.000  0.000
 -0.000 -0.000  0.140  0.000  0.000
  0.000  0.000  0.000  0.066 -0.000
  0.000  0.000  0.000 -0.000  0.250
atomic mag. moment =     4.259120
atom    6   Tr[ns(na)] (up, down, total) =   0.70654  4.97500  5.68155
   spin  1
    eigenvalues:
  0.065  0.115  0.140  0.140  0.247
    eigenvectors:
  0.000  1.000  0.000  0.000  0.000
  0.000  0.000  0.117  0.883  0.000
  0.000  0.000  0.883  0.117  0.000
  1.000  0.000  0.000  0.000  0.000
  0.000  0.000  0.000  0.000  1.000
    occupations:
  0.115 -0.000 -0.000  0.000  0.000
 -0.000  0.140 -0.000  0.000  0.000
 -0.000 -0.000  0.140  0.000  0.000
  0.000  0.000  0.000  0.065 -0.000
  0.000  0.000  0.000 -0.000  0.247
   spin  2
    eigenvalues:
  0.985  0.994  0.994  0.999  1.002
    eigenvectors:
  0.000  0.000  0.000  1.000  0.000
  0.000  0.116  0.884  0.000  0.000
  0.000  0.884  0.116  0.000  0.000
  0.000  0.000  0.000  0.000  1.000
  1.000  0.000  0.000  0.000  0.000
    occupations:
  0.999 -0.000 -0.000  0.000  0.000
 -0.000  0.994 -0.000  0.000  0.000
 -0.000 -0.000  0.994  0.000  0.000
  0.000  0.000  0.000  1.002 -0.000
  0.000  0.000  0.000 -0.000  0.985
atomic mag. moment =    -4.268464
atom    7   Tr[ns(na)] (up, down, total) =   4.97711  0.69342  5.67053
   spin  1
    eigenvalues:
  0.986  0.995  0.995  0.999  1.002
    eigenvectors:
  0.000  0.000  0.000  1.000  0.000
  0.000  0.131  0.869  0.000  0.000
  0.000  0.869  0.131  0.000  0.000
  0.000  0.000  0.000  0.000  1.000
  1.000  0.000  0.000  0.000  0.000
    occupations:
  0.999 -0.000 -0.000  0.000  0.000
 -0.000  0.995 -0.000  0.000  0.000
 -0.000 -0.000  0.995  0.000  0.000
  0.000  0.000  0.000  1.002 -0.000
  0.000  0.000  0.000 -0.000  0.986
   spin  2
    eigenvalues:
  0.067  0.108  0.140  0.140  0.239
    eigenvectors:
  0.000  1.000  0.000  0.000  0.000
  0.000  0.000  0.127  0.873  0.000
  0.000  0.000  0.873  0.127  0.000
  1.000  0.000  0.000  0.000  0.000
  0.000  0.000  0.000  0.000  1.000
    occupations:
  0.108 -0.000 -0.000  0.000  0.000
 -0.000  0.140 -0.000  0.000  0.000
 -0.000 -0.000  0.140  0.000  0.000
  0.000  0.000  0.000  0.067 -0.000
  0.000  0.000  0.000 -0.000  0.239
atomic mag. moment =     4.283686
atom    8   Tr[ns(na)] (up, down, total) =   0.70654  4.97500  5.68155
   spin  1
    eigenvalues:
  0.065  0.115  0.140  0.140  0.247
    eigenvectors:
  0.000  1.000  0.000  0.000  0.000
  0.000  0.000  0.124  0.876  0.000
  0.000  0.000  0.876  0.124  0.000
  1.000  0.000  0.000  0.000  0.000
  0.000  0.000  0.000  0.000  1.000
    occupations:
  0.115 -0.000 -0.000  0.000  0.000
 -0.000  0.140 -0.000  0.000  0.000
 -0.000 -0.000  0.140  0.000  0.000
  0.000  0.000  0.000  0.065 -0.000
  0.000  0.000  0.000 -0.000  0.247
   spin  2
    eigenvalues:
  0.985  0.994  0.994  0.999  1.002
    eigenvectors:
  0.000  0.000  0.000  1.000  0.000
  0.000  0.132  0.868  0.000  0.000
  0.000  0.868  0.132  0.000  0.000
  0.000  0.000  0.000  0.000  1.000
  1.000  0.000  0.000  0.000  0.000
    occupations:
  0.999 -0.000 -0.000  0.000  0.000
 -0.000  0.994 -0.000  0.000  0.000
 -0.000 -0.000  0.994  0.000  0.000
  0.000  0.000  0.000  1.002 -0.000
  0.000  0.000  0.000 -0.000  0.985
atomic mag. moment =    -4.268464
N of occupied +U levels =   45.492209
 --- exit write_ns ---

 ------ SPIN UP ------------

          k = 0.0000 0.0000 0.0000 ( 14071 PWs)   bands (ev):

   -67.1078 -67.0218 -67.0218 -67.0151 -67.0151 -62.4511 -62.4510 -62.4435
   -35.8761 -35.8226 -35.8226 -35.7963 -35.7963 -35.7906 -35.7906 -35.7347
   -35.7347 -35.7347 -35.7347 -35.7273 -35.7273 -35.7273 -35.7273 -31.2709
   -31.2709 -31.2709 -31.2709 -31.2687 -31.2687 -31.2631 -31.2631 -31.2625
     5.6018   5.7343   5.7552   6.1541   6.2036   6.8129   6.8640   7.4041
     8.0541   8.2391   8.2483   8.2525   8.3017   8.3149   8.3756   8.5287
     8.5521   8.5658   8.5749   8.7044   8.7250   8.9872   9.0347   9.0435
     9.0795   9.1733   9.2163   9.2328   9.3130   9.5738   9.6893   9.7464
     9.7533   9.7944   9.8980   9.9131   9.9264   9.9439   9.9439   9.9559
     9.9774   9.9871   9.9871   9.9946  10.0062  10.0062  10.1522  10.1522
    10.1552  10.1552  10.2776  10.3078  10.3078  10.3229  10.3229  10.3248
    10.3248  10.3465  10.3813  10.3815  10.3815  10.3977  10.3977  10.4146
    10.4342  10.4342  10.4757  10.4757  10.4774  10.7394  10.7394  10.8283
    10.8320  10.8719  10.8719  10.8829  10.9039  10.9829  11.0793  11.0973
    11.1064  11.2014  11.2014  11.2227  11.2505  11.2505  11.3934  11.4435
    11.4479  11.4850  11.4910  11.5035  11.6113  11.6907  11.6907  11.7656
    11.7656  11.8145  11.8237  11.8733  11.9122  11.9824  12.0702  12.0702
    12.2846  12.2846  12.3419  12.3419  12.3734  12.4054  12.5096  12.5294
    12.6982  12.7052  12.7175  12.7638  13.4888  13.6455  14.6334  14.9596
    15.7247  16.6574  16.6574  16.6802  16.6802  16.6925  16.6927  16.7044
    16.7044  16.7068  16.8621  16.8776  16.8777  17.0376  17.2210  17.2431
    18.0414  18.9684  19.1426  19.8876  19.8876  20.2272  20.2272  20.2695
    20.2695  20.9502

[...]

          k =-0.5000-0.5000 0.0000 ( 14124 PWs)   bands (ev):

[...]

 ------ SPIN DOWN ----------

[...]

          k = 0.3333-0.5000-0.0478 ( 14140 PWs)   bands (ev):

[...]

          k =-0.5000-0.5000-0.0478 ( 14176 PWs)   bands (ev):

   -67.0705 -67.0705 -67.0513 -62.4708 -62.4087 -62.4087 -62.4020 -62.4020
   -35.8415 -35.8415 -35.8253 -35.7958 -35.7958 -35.7958 -35.7958 -35.7759
   -35.7759 -31.3071 -31.3071 -31.2843 -31.2413 -31.2413 -31.2413 -31.2413
   -31.2341 -31.2341 -31.2341 -31.2341 -31.2320 -31.2320 -31.2259 -31.2259
     8.0258   8.0356   8.0553   8.0806   8.1246   8.2003   8.5283   8.5318
     8.7346   8.7842   8.8545   8.8771   9.0733   9.0733   9.0831   9.0831
     9.1098   9.1247   9.1598   9.1598   9.1605   9.1704   9.1947   9.1947
     9.3698   9.3698   9.3713   9.3713   9.6610   9.6610   9.6625   9.6625
     9.6679   9.6849   9.6849   9.6964   9.6964   9.6976   9.6976   9.7324
     9.7878  10.0881  10.0881  10.1021  10.1021  10.3529  10.3996  10.4513
    10.4808  10.4847  10.5195  10.5195  10.7081  10.7081  11.0088  11.0188
    11.0192  11.0297  11.0359  11.0359  11.0514  11.0687  11.1599  11.1599
    11.1734  11.4814  11.4814  11.7229  11.7358  11.7359  11.7480  11.7720
    11.7728  11.7786  11.7786  11.7866  11.7867  11.8033  11.8170  11.8170
    11.8306  11.8616  11.8619  11.8722  11.8722  11.8729  11.8729  11.9337
    11.9439  11.9585  11.9937  11.9960  12.0519  12.0819  12.1119  13.1917
    13.2101  13.2206  13.2258  13.2275  13.7514  13.7514  13.7859  13.7859
    14.0298  14.0298  14.3230  14.3230  14.4156  14.4156  15.6208  15.6208
    15.6734  15.6734  15.7348  15.7348  16.3596  16.3875  16.4184  16.5806
    16.5998  16.7291  16.8559  16.9364  17.0270  17.0270  17.3638  17.3638
    17.4939  17.4989  17.5047  17.6007  17.6007  17.6242  17.7649  17.8497
    17.8551  17.9339  18.0516  18.1398  18.4635  18.4682  18.4682  18.4876
    18.4876  18.5790

     the Fermi energy is    15.0641 ev

!    total energy              =  -14694.01241668 Ry
     Harris-Foulkes estimate   =  -14694.01240928 Ry
     estimated scf accuracy    <       0.00000069 Ry

     total all-electron energy =   -626921.608139 Ry

     The total energy is the sum of the following terms:

     one-electron contribution =    -729.58655212 Ry
     hartree contribution      =     661.30324956 Ry
     xc contribution           =    -737.68867000 Ry
     ewald contribution        =   -2186.64874840 Ry
     Hubbard energy            =       0.43529686 Ry
     one-center paw contrib.   =  -11701.82699259 Ry

     total magnetization       =     8.77 Bohr mag/cell
     absolute magnetization    =    37.46 Bohr mag/cell

     convergence has been achieved in  24 iterations

     Writing output data file mnau2.save/

     General routines

     Parallel routines

     Hubbard U routines

   This run was terminated on:  15:32:28   1Apr2019

   JOB DONE.