     Program PWSCF v.6.3MaX starts on  1Apr2019 at 15:50:32

     R & G space division:  proc/nbgrp/npool/nimage =      32
     Waiting for input...
     Reading input from standard input

     Current dimensions of program PWSCF are:
     Max number of different atomic species (ntypx) = 10
     Max number of k-points (npk) =  40000
     Max angular momentum in pseudopotentials (lmaxx) =  3
     Message from routine read_upf::
     Pseudo file ./pseudo/Mn.pbe-spn-kjpaw_psl.0.3.1.UPF has been successfully fixed on the fly.
To avoid this message in the future you can permanently fix
 your pseudo files following instructions given in:
               file Mn.pbe-spn-kjpaw_psl.0.3.1.UPF: wavefunction(s)  3P 3D renormalized
     Message from routine read_upf::
     Pseudo file ./pseudo/Mn.pbe-spn-kjpaw_psl.0.3.1.UPF has been successfully fixed on the fly.
To avoid this message in the future you can permanently fix
 your pseudo files following instructions given in:
               file Mn.pbe-spn-kjpaw_psl.0.3.1.UPF: wavefunction(s)  3P 3D renormalized
     Message from routine read_upf::
     Pseudo file ./pseudo/Au.pbe-dn-kjpaw_psl.0.1.UPF has been successfully fixed on the fly.
To avoid this message in the future you can permanently fix
 your pseudo files following instructions given in:
               file Au.pbe-dn-kjpaw_psl.0.1.UPF: wavefunction(s)  6S 6P 5D renormalized

     Found symmetry operation: I + (  0.0000  0.0000  0.2500)
     This is a supercell, fractional translations are disabled

     bravais-lattice index     =            0
     lattice parameter (alat)  =       6.4153  a.u.
     unit-cell volume          =    2762.7331 (a.u.)^3
     number of atoms/cell      =           24
     number of atomic types    =            3
     number of electrons       =       296.00
     number of Kohn-Sham states=          178
     kinetic-energy cutoff     =      45.0000  Ry
     charge density cutoff     =     400.0000  Ry
     convergence threshold     =      1.0E-06
     mixing beta               =       0.1000
     number of iterations used =            8  plain     mixing
     Exchange-correlation      = SLA PW PBX PBC ( 1  4  3  4 0 0)

     celldm(1)=   6.415315  celldm(2)=   0.000000  celldm(3)=   0.000000
     celldm(4)=   0.000000  celldm(5)=   0.000000  celldm(6)=   0.000000

     crystal axes: (cart. coord. in units of alat)
               a(1) = (   1.000000   0.000000   0.000000 )
               a(2) = (   0.000000   1.000000   0.000000 )
               a(3) = (   0.000000   0.000000  10.463692 )

     reciprocal axes: (cart. coord. in units 2 pi/alat)
               b(1) = (  1.000000  0.000000  0.000000 )
               b(2) = (  0.000000  1.000000  0.000000 )
               b(3) = (  0.000000  0.000000  0.095569 )

     PseudoPot. # 1 for Mn read from file:
     ./pseudo/Mn.pbe-spn-kjpaw_psl.0.3.1.UPF
     MD5 check sum: 7eef95dd2aae66803482eea66ebeebf1
     Pseudo is Projector augmented-wave + core cor, Zval = 15.0
     Generated using "atomic" code by A. Dal Corso v.5.0.99 svn rev. 10869
     Shape of augmentation charge: PSQ
     Using radial grid of 1187 points,  6 beta functions with:
                l(1) =   0
                l(2) =   0
                l(3) =   1
                l(4) =   1
                l(5) =   2
                l(6) =   2
     Q(r) pseudized with 0 coefficients

     PseudoPot. # 2 for Mn read from file:
     ./pseudo/Mn.pbe-spn-kjpaw_psl.0.3.1.UPF
     MD5 check sum: 7eef95dd2aae66803482eea66ebeebf1
     Pseudo is Projector augmented-wave + core cor, Zval = 15.0
     Generated using "atomic" code by A. Dal Corso v.5.0.99 svn rev. 10869
     Shape of augmentation charge: PSQ
     Using radial grid of 1187 points,  6 beta functions with:
                l(1) =   0
                l(2) =   0
                l(3) =   1
                l(4) =   1
                l(5) =   2
                l(6) =   2
     Q(r) pseudized with 0 coefficients

     PseudoPot. # 3 for Au read from file:
     ./pseudo/Au.pbe-dn-kjpaw_psl.0.1.UPF
     MD5 check sum: 5c9b92683623e7ae2ab3f8e525febab6
     Pseudo is Projector augmented-wave + core cor, Zval = 11.0
     Generated using "atomic" code by A. Dal Corso v.5.0.2 svn rev. 9415
     Shape of augmentation charge: PSQ
     Using radial grid of 1279 points,  6 beta functions with:
                l(1) =   0
                l(2) =   0
                l(3) =   1
                l(4) =   1
                l(5) =   2
                l(6) =   2
     Q(r) pseudized with 0 coefficients

     atomic species   valence    mass     pseudopotential
        Mn1           15.00    54.93800     Mn( 1.00)
        Mn2           15.00    54.93800     Mn( 1.00)
        Au            11.00   196.96600     Au( 1.00)

     Starting magnetic structure
     atomic species   magnetization
        Mn1          0.800
        Mn2         -0.800
        Au           0.000

     Full LDA+U calculation (l_max = 2) with parameters (eV):
     U(  1) =   3.1200   J(  1) =   0.7000   B(  1) =   0.0803
     U(  2) =   3.1200   J(  2) =   0.7000   B(  2) =   0.0803

     16 Sym. Ops., with inversion, found

   Cartesian axes

     site n.     atom                  positions (alat units)
         1           Mn1 tau(   1) = (   0.0000000   0.0000000   0.0000000  )
         2           Mn2 tau(   2) = (   0.5000000   0.5000000   1.3079615  )
         3           Mn1 tau(   3) = (   0.0000000   0.0000000   2.6159231  )
         4           Mn2 tau(   4) = (   0.5000000   0.5000000   3.9238846  )
         5           Mn1 tau(   5) = (   0.0000000   0.0000000   5.2318461  )
         6           Mn2 tau(   6) = (   0.5000000   0.5000000   6.5398077  )
         7           Mn1 tau(   7) = (   0.0000000   0.0000000   7.8477692  )
         8           Mn2 tau(   8) = (   0.5000000   0.5000000   9.1557307  )
         9           Au  tau(   9) = (   0.5000000   0.5000000   0.4185477  )
        10           Au  tau(  10) = (   0.0000000   0.0000000   0.8894138  )
        11           Au  tau(  11) = (   0.0000000   0.0000000   1.7265092  )
        12           Au  tau(  12) = (   0.5000000   0.5000000   2.1973754  )
        13           Au  tau(  13) = (   0.5000000   0.5000000   3.0344708  )
        14           Au  tau(  14) = (   0.0000000   0.0000000   3.5053369  )
        15           Au  tau(  15) = (   0.0000000   0.0000000   4.3424323  )
        16           Au  tau(  16) = (   0.5000000   0.5000000   4.8132984  )
        17           Au  tau(  17) = (   0.5000000   0.5000000   5.6503938  )
        18           Au  tau(  18) = (   0.0000000   0.0000000   6.1212600  )
        19           Au  tau(  19) = (   0.0000000   0.0000000   6.9583554  )
        20           Au  tau(  20) = (   0.5000000   0.5000000   7.4292215  )
        21           Au  tau(  21) = (   0.5000000   0.5000000   8.2663169  )
        22           Au  tau(  22) = (   0.0000000   0.0000000   8.7371830  )
        23           Au  tau(  23) = (   0.0000000   0.0000000   9.5742784  )
        24           Au  tau(  24) = (   0.5000000   0.5000000  10.0451446  )

     number of k points=    40 (tetrahedron method)
                       cart. coord. in units 2pi/alat
        k(    1) = (   0.0000000   0.0000000   0.0000000), wk =   0.0046296
        k(    2) = (   0.0000000   0.0000000   0.0159281), wk =   0.0092593
        k(    3) = (   0.0000000   0.0000000   0.0318562), wk =   0.0092593
        k(    4) = (   0.0000000   0.0000000  -0.0477843), wk =   0.0046296
        k(    5) = (   0.0000000   0.1666667   0.0000000), wk =   0.0185185
        k(    6) = (   0.0000000   0.1666667   0.0159281), wk =   0.0370370
        k(    7) = (   0.0000000   0.1666667   0.0318562), wk =   0.0370370
        k(    8) = (   0.0000000   0.1666667  -0.0477843), wk =   0.0185185
        k(    9) = (   0.0000000   0.3333333   0.0000000), wk =   0.0185185
        k(   10) = (   0.0000000   0.3333333   0.0159281), wk =   0.0370370
        k(   11) = (   0.0000000   0.3333333   0.0318562), wk =   0.0370370
        k(   12) = (   0.0000000   0.3333333  -0.0477843), wk =   0.0185185
        k(   13) = (   0.0000000  -0.5000000   0.0000000), wk =   0.0092593
        k(   14) = (   0.0000000  -0.5000000   0.0159281), wk =   0.0185185
        k(   15) = (   0.0000000  -0.5000000   0.0318562), wk =   0.0185185
        k(   16) = (   0.0000000  -0.5000000  -0.0477843), wk =   0.0092593
        k(   17) = (   0.1666667   0.1666667   0.0000000), wk =   0.0185185
        k(   18) = (   0.1666667   0.1666667   0.0159281), wk =   0.0370370
        k(   19) = (   0.1666667   0.1666667   0.0318562), wk =   0.0370370
        k(   20) = (   0.1666667   0.1666667  -0.0477843), wk =   0.0185185
        k(   21) = (   0.1666667   0.3333333   0.0000000), wk =   0.0370370
        k(   22) = (   0.1666667   0.3333333   0.0159281), wk =   0.0740741
        k(   23) = (   0.1666667   0.3333333   0.0318562), wk =   0.0740741
        k(   24) = (   0.1666667   0.3333333  -0.0477843), wk =   0.0370370
        k(   25) = (   0.1666667  -0.5000000   0.0000000), wk =   0.0185185
        k(   26) = (   0.1666667  -0.5000000   0.0159281), wk =   0.0370370
        k(   27) = (   0.1666667  -0.5000000   0.0318562), wk =   0.0370370
        k(   28) = (   0.1666667  -0.5000000  -0.0477843), wk =   0.0185185
        k(   29) = (   0.3333333   0.3333333   0.0000000), wk =   0.0185185
        k(   30) = (   0.3333333   0.3333333   0.0159281), wk =   0.0370370
        k(   31) = (   0.3333333   0.3333333   0.0318562), wk =   0.0370370
        k(   32) = (   0.3333333   0.3333333  -0.0477843), wk =   0.0185185
        k(   33) = (   0.3333333  -0.5000000   0.0000000), wk =   0.0185185
        k(   34) = (   0.3333333  -0.5000000   0.0159281), wk =   0.0370370
        k(   35) = (   0.3333333  -0.5000000   0.0318562), wk =   0.0370370
        k(   36) = (   0.3333333  -0.5000000  -0.0477843), wk =   0.0185185
        k(   37) = (  -0.5000000  -0.5000000   0.0000000), wk =   0.0046296
        k(   38) = (  -0.5000000  -0.5000000   0.0159281), wk =   0.0092593
        k(   39) = (  -0.5000000  -0.5000000   0.0318562), wk =   0.0092593
        k(   40) = (  -0.5000000  -0.5000000  -0.0477843), wk =   0.0046296

     Check: negative/imaginary core charge=   -0.000006    0.000000

     Initial potential from superposition of free atoms

     starting charge  295.99426, renormalised to  296.00000
     Number of +U iterations with fixed ns =  0
     Starting occupations:
 --- enter write_ns ---
 LDA+U parameters:
U(  1) =   3.1200   J(  1) =   0.7000   B(  1) =   0.0803
U(  2) =   3.1200   J(  2) =   0.7000   B(  2) =   0.0803
atom    1   Tr[ns(na)] (up, down, total) =   5.00000  0.00000  5.00000
   spin  1
    eigenvalues:
  1.000  1.000  1.000  1.000  1.000
    eigenvectors:
  1.000  0.000  0.000  0.000  0.000
  0.000  1.000  0.000  0.000  0.000
  0.000  0.000  1.000  0.000  0.000
  0.000  0.000  0.000  1.000  0.000
  0.000  0.000  0.000  0.000  1.000
    occupations:
  1.000  0.000  0.000  0.000  0.000
  0.000  1.000  0.000  0.000  0.000
  0.000  0.000  1.000  0.000  0.000
  0.000  0.000  0.000  1.000  0.000
  0.000  0.000  0.000  0.000  1.000
   spin  2
[...]
  0.000  0.000  0.000  0.000  1.000
    occupations:
  0.069 -0.000 -0.000  0.000  0.000
 -0.000  0.077 -0.000  0.000  0.000
 -0.000 -0.000  0.077  0.000  0.000
  0.000  0.000  0.000  0.052 -0.000
  0.000  0.000  0.000 -0.000  0.121
   spin  2
    eigenvalues:
  1.003  1.003  1.003  1.004  1.004
    eigenvectors:
  0.000  0.000  0.000  1.000  0.000
  0.000  0.119  0.881  0.000  0.000
  0.000  0.881  0.119  0.000  0.000
  0.000  0.000  0.000  0.000  1.000
  1.000  0.000  0.000  0.000  0.000
    occupations:
  1.004 -0.000 -0.000  0.000  0.000
 -0.000  1.003 -0.000  0.000  0.000
 -0.000 -0.000  1.003  0.000  0.000
  0.000  0.000  0.000  1.004 -0.000
  0.000  0.000  0.000 -0.000  1.003
atomic mag. moment =    -4.622284
N of occupied +U levels =   43.300161
 --- exit write_ns ---

     total energy              =  -14687.31149360 Ry
     Harris-Foulkes estimate   =  -14685.85319659 Ry
     estimated scf accuracy    <      11.51798272 Ry

     total magnetization       =    -0.00 Bohr mag/cell
     absolute magnetization    =    41.78 Bohr mag/cell

     iteration #  2     ecut=    45.00 Ry     beta= 0.10
     Davidson diagonalization with overlap
     ethr =  3.89E-03,  avg # of iterations =  1.0

[...]

     iteration # 11     ecut=    45.00 Ry     beta= 0.10
     Davidson diagonalization with overlap
     c_bands:  3 eigenvalues not converged
     c_bands:  4 eigenvalues not converged
     ethr =  1.03E-05,  avg # of iterations =  4.0

[...]

     total energy              =  -14694.00338685 Ry
     Harris-Foulkes estimate   =  -14694.00338676 Ry
     estimated scf accuracy    <       0.00000104 Ry

[...]

     iteration # 53     ecut=    45.00 Ry     beta= 0.10
     Davidson diagonalization with overlap
     ethr =  3.53E-10,  avg # of iterations =  1.0

     Magnetic moment per site:
     atom:    1    charge:   13.5415    magn:    4.2871    constr:    0.0000
     atom:    2    charge:   13.5418    magn:   -4.2862    constr:    0.0000
     atom:    3    charge:   13.5418    magn:    4.2856    constr:    0.0000
     atom:    4    charge:   13.5417    magn:   -4.2863    constr:    0.0000
     atom:    5    charge:   13.5416    magn:    4.2867    constr:    0.0000
     atom:    6    charge:   13.5417    magn:   -4.2863    constr:    0.0000
     atom:    7    charge:   13.5418    magn:    4.2856    constr:    0.0000
     atom:    8    charge:   13.5418    magn:   -4.2862    constr:    0.0000
     atom:    9    charge:    9.1407    magn:    0.0372    constr:    0.0000
     atom:   10    charge:    9.1411    magn:   -0.0367    constr:    0.0000
     atom:   11    charge:    9.1412    magn:   -0.0369    constr:    0.0000
     atom:   12    charge:    9.1408    magn:    0.0369    constr:    0.0000
     atom:   13    charge:    9.1408    magn:    0.0367    constr:    0.0000
     atom:   14    charge:    9.1412    magn:   -0.0371    constr:    0.0000
     atom:   15    charge:    9.1412    magn:   -0.0370    constr:    0.0000
     atom:   16    charge:    9.1407    magn:    0.0369    constr:    0.0000
     atom:   17    charge:    9.1407    magn:    0.0369    constr:    0.0000
     atom:   18    charge:    9.1412    magn:   -0.0370    constr:    0.0000
     atom:   19    charge:    9.1412    magn:   -0.0371    constr:    0.0000
     atom:   20    charge:    9.1408    magn:    0.0367    constr:    0.0000
     atom:   21    charge:    9.1408    magn:    0.0369    constr:    0.0000
     atom:   22    charge:    9.1412    magn:   -0.0369    constr:    0.0000
     atom:   23    charge:    9.1411    magn:   -0.0367    constr:    0.0000
     atom:   24    charge:    9.1407    magn:    0.0372    constr:    0.0000

     End of self-consistent calculation
 --- enter write_ns ---
 LDA+U parameters:
U(  1) =   3.1200   J(  1) =   0.7000   B(  1) =   0.0803
U(  2) =   3.1200   J(  2) =   0.7000   B(  2) =   0.0803
atom    1   Tr[ns(na)] (up, down, total) =   4.97727  0.69195  5.66921
   spin  1
    eigenvalues:
  0.986  0.995  0.995  0.999  1.002
    eigenvectors:
  0.000  0.000  0.000  1.000  0.000
  0.000  0.126  0.874  0.000  0.000
  0.000  0.874  0.126  0.000  0.000
  0.000  0.000  0.000  0.000  1.000
  1.000  0.000  0.000  0.000  0.000
    occupations:
  0.999 -0.000 -0.000  0.000  0.000
 -0.000  0.995 -0.000  0.000  0.000
 -0.000 -0.000  0.995  0.000  0.000
  0.000  0.000  0.000  1.002 -0.000
  0.000  0.000  0.000 -0.000  0.986
   spin  2
    eigenvalues:
  0.067  0.111  0.138  0.138  0.239
    eigenvectors:
  0.000  1.000  0.000  0.000  0.000
  0.000  0.000  0.141  0.859  0.000
  0.000  0.000  0.859  0.141  0.000
  1.000  0.000  0.000  0.000  0.000
  0.000  0.000  0.000  0.000  1.000
    occupations:
  0.111 -0.000 -0.000  0.000  0.000
 -0.000  0.138 -0.000  0.000  0.000
 -0.000 -0.000  0.138  0.000  0.000
  0.000  0.000  0.000  0.067 -0.000
  0.000  0.000  0.000 -0.000  0.239
atomic mag. moment =     4.285321
atom    2   Tr[ns(na)] (up, down, total) =   0.69256  4.97720  5.66976
   spin  1
    eigenvalues:
  0.067  0.112  0.137  0.137  0.239
    eigenvectors:
  0.000  1.000  0.000  0.000  0.000
  0.000  0.000  0.113  0.887  0.000
  0.000  0.000  0.887  0.113  0.000
  1.000  0.000  0.000  0.000  0.000
  0.000  0.000  0.000  0.000  1.000
    occupations:
  0.112 -0.000 -0.000  0.000  0.000
 -0.000  0.137 -0.000  0.000  0.000
 -0.000 -0.000  0.137  0.000  0.000
  0.000  0.000  0.000  0.067 -0.000
  0.000  0.000  0.000 -0.000  0.239
   spin  2
    eigenvalues:
  0.986  0.995  0.995  0.999  1.002
    eigenvectors:
  0.000  0.000  0.000  1.000  0.000
  0.000  0.106  0.894  0.000  0.000
  0.000  0.894  0.106  0.000  0.000
  0.000  0.000  0.000  0.000  1.000
  1.000  0.000  0.000  0.000  0.000
    occupations:
  0.999 -0.000 -0.000  0.000  0.000
 -0.000  0.995 -0.000  0.000  0.000
 -0.000 -0.000  0.995  0.000  0.000
  0.000  0.000  0.000  1.002 -0.000
  0.000  0.000  0.000 -0.000  0.986
atomic mag. moment =    -4.284631
atom    3   Tr[ns(na)] (up, down, total) =   4.97710  0.69297  5.67008
   spin  1
    eigenvalues:
  0.986  0.995  0.995  0.999  1.002
    eigenvectors:
  0.000  0.000  0.000  1.000  0.000
  0.000  0.123  0.877  0.000  0.000
  0.000  0.877  0.123  0.000  0.000
  0.000  0.000  0.000  0.000  1.000
  1.000  0.000  0.000  0.000  0.000
    occupations:
  0.999 -0.000 -0.000  0.000  0.000
 -0.000  0.995 -0.000  0.000  0.000
 -0.000 -0.000  0.995  0.000  0.000
  0.000  0.000  0.000  1.002 -0.000
  0.000  0.000  0.000 -0.000  0.986
   spin  2
    eigenvalues:
  0.067  0.112  0.137  0.137  0.239
    eigenvectors:
  0.000  1.000  0.000  0.000  0.000
  0.000  0.000  0.156  0.844  0.000
  0.000  0.000  0.844  0.156  0.000
  1.000  0.000  0.000  0.000  0.000
  0.000  0.000  0.000  0.000  1.000
    occupations:
  0.112 -0.000 -0.000  0.000  0.000
 -0.000  0.137 -0.000  0.000  0.000
 -0.000 -0.000  0.137  0.000  0.000
  0.000  0.000  0.000  0.067 -0.000
  0.000  0.000  0.000 -0.000  0.239
atomic mag. moment =     4.284130
atom    4   Tr[ns(na)] (up, down, total) =   0.69250  4.97716  5.66966
   spin  1
    eigenvalues:
  0.067  0.112  0.138  0.138  0.239
    eigenvectors:
  0.000  1.000  0.000  0.000  0.000
  0.000  0.000  0.118  0.882  0.000
  0.000  0.000  0.882  0.118  0.000
  1.000  0.000  0.000  0.000  0.000
  0.000  0.000  0.000  0.000  1.000
    occupations:
  0.112 -0.000 -0.000  0.000  0.000
 -0.000  0.138 -0.000  0.000  0.000
 -0.000 -0.000  0.138  0.000  0.000
  0.000  0.000  0.000  0.067 -0.000
  0.000  0.000  0.000 -0.000  0.239
   spin  2
    eigenvalues:
  0.986  0.995  0.995  0.999  1.002
    eigenvectors:
  0.000  0.000  0.000  1.000  0.000
  0.000  0.115  0.885  0.000  0.000
  0.000  0.885  0.115  0.000  0.000
  0.000  0.000  0.000  0.000  1.000
  1.000  0.000  0.000  0.000  0.000
    occupations:
  0.999 -0.000 -0.000  0.000  0.000
 -0.000  0.995 -0.000  0.000  0.000
 -0.000 -0.000  0.995  0.000  0.000
  0.000  0.000  0.000  1.002 -0.000
  0.000  0.000  0.000 -0.000  0.986
atomic mag. moment =    -4.284659
atom    5   Tr[ns(na)] (up, down, total) =   4.97724  0.69225  5.66948
   spin  1
    eigenvalues:
  0.986  0.995  0.995  0.999  1.002
    eigenvectors:
  0.000  0.000  0.000  1.000  0.000
  0.000  0.136  0.864  0.000  0.000
  0.000  0.864  0.136  0.000  0.000
  0.000  0.000  0.000  0.000  1.000
  1.000  0.000  0.000  0.000  0.000
    occupations:
  0.999 -0.000 -0.000  0.000  0.000
 -0.000  0.995 -0.000  0.000  0.000
 -0.000 -0.000  0.995  0.000  0.000
  0.000  0.000  0.000  1.002 -0.000
  0.000  0.000  0.000 -0.000  0.986
   spin  2
    eigenvalues:
  0.067  0.111  0.138  0.138  0.239
    eigenvectors:
  0.000  1.000  0.000  0.000  0.000
  0.000  0.000  0.116  0.884  0.000
  0.000  0.000  0.884  0.116  0.000
  1.000  0.000  0.000  0.000  0.000
  0.000  0.000  0.000  0.000  1.000
    occupations:
  0.111 -0.000 -0.000  0.000  0.000
 -0.000  0.138 -0.000  0.000  0.000
 -0.000 -0.000  0.138  0.000  0.000
  0.000  0.000  0.000  0.067 -0.000
  0.000  0.000  0.000 -0.000  0.239
atomic mag. moment =     4.284989
atom    6   Tr[ns(na)] (up, down, total) =   0.69250  4.97716  5.66966
   spin  1
    eigenvalues:
  0.067  0.112  0.138  0.138  0.239
    eigenvectors:
  0.000  1.000  0.000  0.000  0.000
  0.000  0.000  0.130  0.870  0.000
  0.000  0.000  0.870  0.130  0.000
  1.000  0.000  0.000  0.000  0.000
  0.000  0.000  0.000  0.000  1.000
    occupations:
  0.112 -0.000 -0.000  0.000  0.000
 -0.000  0.138 -0.000  0.000  0.000
 -0.000 -0.000  0.138  0.000  0.000
  0.000  0.000  0.000  0.067 -0.000
  0.000  0.000  0.000 -0.000  0.239
   spin  2
    eigenvalues:
  0.986  0.995  0.995  0.999  1.002
    eigenvectors:
  0.000  0.000  0.000  1.000  0.000
  0.000  0.115  0.885  0.000  0.000
  0.000  0.885  0.115  0.000  0.000
  0.000  0.000  0.000  0.000  1.000
  1.000  0.000  0.000  0.000  0.000
    occupations:
  0.999 -0.000 -0.000  0.000  0.000
 -0.000  0.995 -0.000  0.000  0.000
 -0.000 -0.000  0.995  0.000  0.000
  0.000  0.000  0.000  1.002 -0.000
  0.000  0.000  0.000 -0.000  0.986
atomic mag. moment =    -4.284659
atom    7   Tr[ns(na)] (up, down, total) =   4.97710  0.69297  5.67008
   spin  1
    eigenvalues:
  0.986  0.995  0.995  0.999  1.002
    eigenvectors:
  0.000  0.000  0.000  1.000  0.000
  0.000  0.108  0.892  0.000  0.000
  0.000  0.892  0.108  0.000  0.000
  0.000  0.000  0.000  0.000  1.000
  1.000  0.000  0.000  0.000  0.000
    occupations:
  0.999 -0.000 -0.000  0.000  0.000
 -0.000  0.995 -0.000  0.000  0.000
 -0.000 -0.000  0.995  0.000  0.000
  0.000  0.000  0.000  1.002 -0.000
  0.000  0.000  0.000 -0.000  0.986
   spin  2
    eigenvalues:
  0.067  0.112  0.137  0.137  0.239
    eigenvectors:
  0.000  1.000  0.000  0.000  0.000
  0.000  0.000  0.157  0.843  0.000
  0.000  0.000  0.843  0.157  0.000
  1.000  0.000  0.000  0.000  0.000
  0.000  0.000  0.000  0.000  1.000
    occupations:
  0.112 -0.000 -0.000  0.000  0.000
 -0.000  0.137 -0.000  0.000  0.000
 -0.000 -0.000  0.137  0.000  0.000
  0.000  0.000  0.000  0.067 -0.000
  0.000  0.000  0.000 -0.000  0.239
atomic mag. moment =     4.284130
atom    8   Tr[ns(na)] (up, down, total) =   0.69256  4.97720  5.66976
   spin  1
    eigenvalues:
  0.067  0.112  0.137  0.137  0.239
    eigenvectors:
  0.000  1.000  0.000  0.000  0.000
  0.000  0.000  0.120  0.880  0.000
  0.000  0.000  0.880  0.120  0.000
  1.000  0.000  0.000  0.000  0.000
  0.000  0.000  0.000  0.000  1.000
    occupations:
  0.112 -0.000 -0.000  0.000  0.000
 -0.000  0.137 -0.000  0.000  0.000
 -0.000 -0.000  0.137  0.000  0.000
  0.000  0.000  0.000  0.067 -0.000
  0.000  0.000  0.000 -0.000  0.239
   spin  2
    eigenvalues:
  0.986  0.995  0.995  0.999  1.002
    eigenvectors:
  0.000  0.000  0.000  1.000  0.000
  0.000  0.105  0.895  0.000  0.000
  0.000  0.895  0.105  0.000  0.000
  0.000  0.000  0.000  0.000  1.000
  1.000  0.000  0.000  0.000  0.000
    occupations:
  0.999 -0.000 -0.000  0.000  0.000
 -0.000  0.995 -0.000  0.000  0.000
 -0.000 -0.000  0.995  0.000  0.000
  0.000  0.000  0.000  1.002 -0.000
  0.000  0.000  0.000 -0.000  0.986
atomic mag. moment =    -4.284631
N of occupied +U levels =   45.357702
 --- exit write_ns ---

 ------ SPIN UP ------------

          k = 0.0000 0.0000 0.0000 ( 14071 PWs)   bands (ev):

   -67.0929 -67.0926 -67.0902 -67.0902 -62.4544 -62.4544 -62.4536 -62.4536
   -35.8623 -35.8618 -35.8595 -35.8595 -35.8063 -35.8063 -35.8061 -35.8061
   -35.8037 -35.8037 -35.8037 -35.8037 -31.2745 -31.2745 -31.2745 -31.2745
   -31.2738 -31.2738 -31.2738 -31.2738 -31.2704 -31.2704 -31.2696 -31.2696
     5.6264   5.7694   5.7695   6.1008   6.3075   6.8611   6.8613   7.4124
     8.1230   8.3196   8.3269   8.3396   8.3399   8.3626   8.3966   8.3968
     8.5175   8.6577   8.6581   8.8302   9.0006   9.0819   9.0823   9.1017
     9.1020   9.1538   9.1807   9.2320   9.7740   9.8051   9.8189   9.8195
     9.8349   9.9134   9.9158   9.9159   9.9569   9.9569   9.9574   9.9631
     9.9632  10.0090  10.0090  10.0094  10.0094  10.0571  10.1588  10.1588
    10.1743  10.1743  10.3248  10.3248  10.3258  10.3258  10.3266  10.3266
    10.3318  10.3318  10.3665  10.4227  10.4232  10.4320  10.4320  10.4320
    10.4320  10.4889  10.7094  10.7094  10.7680  10.8848  10.8848  10.8860
    10.8865  10.9927  11.0049  11.0997  11.0999  11.1937  11.2126  11.2126
    11.2131  11.2131  11.2345  11.2467  11.2476  11.2633  11.4783  11.4783
    11.5916  11.6343  11.6348  11.6699  11.8404  11.9193  11.9193  11.9201
    11.9206  11.9951  12.0904  12.0904  12.0905  12.0905  12.1994  12.1994
    12.5022  12.5337  12.5343  12.5437  12.5609  12.7240  12.7245  13.0738
    13.8785  14.6523  14.6527  15.4627  16.6423  16.6423  16.6798  16.6800
    16.6804  16.6806  16.6862  16.6862  16.6862  16.6862  16.7339  16.7339
    16.9032  16.9033  16.9037  16.9038  17.0593  17.2334  17.2334  17.2839
    18.2191  19.1637  19.1637  19.9273  19.9273  20.2967  20.2967  20.2968
    20.2968  20.9147

[...]

          k =-0.5000-0.5000 0.0000 ( 14124 PWs)   bands (ev):

[...]

 ------ SPIN DOWN ----------

[...]

          k = 0.3333-0.5000-0.0478 ( 14140 PWs)   bands (ev):

[...]

          k =-0.5000-0.5000-0.0478 ( 14176 PWs)   bands (ev):

   -67.0906 -67.0906 -67.0896 -67.0896 -62.4538 -62.4534 -62.4518 -62.4518
   -35.8597 -35.8597 -35.8585 -35.8585 -35.8159 -35.8159 -35.8159 -35.8159
   -35.8150 -35.8150 -35.8150 -35.8150 -31.2887 -31.2887 -31.2883 -31.2883
   -31.2868 -31.2868 -31.2868 -31.2868 -31.2687 -31.2683 -31.2667 -31.2667
     8.0230   8.0231   8.0259   8.0260   8.1312   8.1313   8.2536   8.2537
     8.7337   8.7337   8.8680   8.8681   9.0856   9.0856   9.0857   9.0857
     9.1017   9.1018   9.1592   9.1592   9.1751   9.1751   9.1751   9.1751
     9.3672   9.3672   9.3673   9.3673   9.6430   9.6430   9.6658   9.6658
     9.6658   9.6658   9.6817   9.6817   9.6821   9.6821   9.6874   9.6874
     9.6878   9.6878   9.8214   9.8214  10.1022  10.1022  10.1022  10.1022
    10.3561  10.3562  10.4769  10.4770  10.6029  10.6029  10.6030  10.6030
    10.9898  10.9903  11.0270  11.0270  11.0437  11.0438  11.0680  11.0686
    11.1497  11.1497  11.1503  11.1503  11.4246  11.4246  11.4247  11.4247
    11.7555  11.7555  11.7557  11.7557  11.7798  11.7798  11.7806  11.7807
    11.8360  11.8360  11.8362  11.8362  11.8625  11.8625  11.8632  11.8634
    11.9271  11.9271  11.9272  11.9272  11.9623  11.9624  11.9822  11.9823
    12.0270  12.0271  12.1396  12.1396  13.2135  13.2137  13.2280  13.2282
    13.7625  13.7625  13.7626  13.7626  14.1098  14.1098  14.1099  14.1099
    15.6161  15.6161  15.6161  15.6161  15.7647  15.7647  15.7647  15.7647
    16.3567  16.3567  16.4302  16.4303  16.6327  16.6328  16.9594  16.9594
    17.4308  17.4308  17.4309  17.4309  17.4802  17.4803  17.5966  17.5967
    17.6601  17.6601  17.7971  17.7975  17.7990  17.7990  18.2108  18.2110
    18.3671  18.3671

     the Fermi energy is    15.0881 ev

!    total energy              =  -14694.00338693 Ry
     Harris-Foulkes estimate   =  -14694.00338679 Ry
     estimated scf accuracy    <       0.00000049 Ry

     total all-electron energy =   -626921.599109 Ry

     The total energy is the sum of the following terms:

     one-electron contribution =    -729.38979367 Ry
     hartree contribution      =     661.16635615 Ry
     xc contribution           =    -737.71394815 Ry
     ewald contribution        =   -2186.64874840 Ry
     Hubbard energy            =       0.42619953 Ry
     one-center paw contrib.   =  -11701.84345240 Ry

     total magnetization       =    -0.00 Bohr mag/cell
     absolute magnetization    =    37.55 Bohr mag/cell

     convergence has been achieved in  53 iterations

     Writing output data file mnau2.save/

     General routines

     Parallel routines

     Hubbard U routines

   This run was terminated on:  16:26:44   1Apr2019

   JOB DONE.