     Program PWSCF v.6.3MaX starts on 29Mar2019 at 15:15:32

     R & G space division:  proc/nbgrp/npool/nimage =      32
     Waiting for input...
     Reading input from standard input

     Current dimensions of program PWSCF are:
     Max number of different atomic species (ntypx) = 10
     Max number of k-points (npk) =  40000
     Max angular momentum in pseudopotentials (lmaxx) =  3
     Message from routine read_upf::
     Pseudo file ./pseudo/Mn.pbe-spn-kjpaw_psl.0.3.1.UPF has been successfully fixed on the fly.
To avoid this message in the future you can permanently fix
 your pseudo files following instructions given in:
               file Mn.pbe-spn-kjpaw_psl.0.3.1.UPF: wavefunction(s)  3P 3D renormalized
     Message from routine read_upf::
     Pseudo file ./pseudo/Mn.pbe-spn-kjpaw_psl.0.3.1.UPF has been successfully fixed on the fly.
To avoid this message in the future you can permanently fix
 your pseudo files following instructions given in:
               file Mn.pbe-spn-kjpaw_psl.0.3.1.UPF: wavefunction(s)  3P 3D renormalized
     Message from routine read_upf::
     Pseudo file ./pseudo/Au.pbe-dn-kjpaw_psl.0.1.UPF has been successfully fixed on the fly.
To avoid this message in the future you can permanently fix
 your pseudo files following instructions given in:
               file Au.pbe-dn-kjpaw_psl.0.1.UPF: wavefunction(s)  6S 6P 5D renormalized

     bravais-lattice index     =            0
     lattice parameter (alat)  =       6.4153  a.u.
     unit-cell volume          =    2762.7331 (a.u.)^3
     number of atoms/cell      =           24
     number of atomic types    =            3
     number of electrons       =       296.00
     number of Kohn-Sham states=          178
     kinetic-energy cutoff     =      45.0000  Ry
     charge density cutoff     =     400.0000  Ry
     convergence threshold     =      1.0E-06
     mixing beta               =       0.1000
     number of iterations used =            8  plain     mixing
     Exchange-correlation      = SLA PW PBX PBC ( 1  4  3  4 0 0)

     celldm(1)=   6.415315  celldm(2)=   0.000000  celldm(3)=   0.000000
     celldm(4)=   0.000000  celldm(5)=   0.000000  celldm(6)=   0.000000

     crystal axes: (cart. coord. in units of alat)
               a(1) = (   1.000000   0.000000   0.000000 )
               a(2) = (   0.000000   1.000000   0.000000 )
               a(3) = (   0.000000   0.000000  10.463692 )

     reciprocal axes: (cart. coord. in units 2 pi/alat)
               b(1) = (  1.000000  0.000000  0.000000 )
               b(2) = (  0.000000  1.000000  0.000000 )
               b(3) = (  0.000000  0.000000  0.095569 )

     PseudoPot. # 1 for Mn read from file:
     ./pseudo/Mn.pbe-spn-kjpaw_psl.0.3.1.UPF
     MD5 check sum: 7eef95dd2aae66803482eea66ebeebf1
     Pseudo is Projector augmented-wave + core cor, Zval = 15.0
     Generated using "atomic" code by A. Dal Corso v.5.0.99 svn rev. 10869
     Shape of augmentation charge: PSQ
     Using radial grid of 1187 points,  6 beta functions with:
                l(1) =   0
                l(2) =   0
                l(3) =   1
                l(4) =   1
                l(5) =   2
                l(6) =   2
     Q(r) pseudized with 0 coefficients

     PseudoPot. # 2 for Mn read from file:
     ./pseudo/Mn.pbe-spn-kjpaw_psl.0.3.1.UPF
     MD5 check sum: 7eef95dd2aae66803482eea66ebeebf1
     Pseudo is Projector augmented-wave + core cor, Zval = 15.0
     Generated using "atomic" code by A. Dal Corso v.5.0.99 svn rev. 10869
     Shape of augmentation charge: PSQ
     Using radial grid of 1187 points,  6 beta functions with:
                l(1) =   0
                l(2) =   0
                l(3) =   1
                l(4) =   1
                l(5) =   2
                l(6) =   2
     Q(r) pseudized with 0 coefficients

     PseudoPot. # 3 for Au read from file:
     ./pseudo/Au.pbe-dn-kjpaw_psl.0.1.UPF
     MD5 check sum: 5c9b92683623e7ae2ab3f8e525febab6
     Pseudo is Projector augmented-wave + core cor, Zval = 11.0
     Generated using "atomic" code by A. Dal Corso v.5.0.2 svn rev. 9415
     Shape of augmentation charge: PSQ
     Using radial grid of 1279 points,  6 beta functions with:
                l(1) =   0
                l(2) =   0
                l(3) =   1
                l(4) =   1
                l(5) =   2
                l(6) =   2
     Q(r) pseudized with 0 coefficients

     atomic species   valence    mass     pseudopotential
        Mn1           15.00    54.93800     Mn( 1.00)
        Mn2           15.00    54.93800     Mn( 1.00)
        Au            11.00   196.96600     Au( 1.00)

     Starting magnetic structure
     atomic species   magnetization
        Mn1          0.800
        Mn2         -0.800
        Au           0.000

     Full LDA+U calculation (l_max = 2) with parameters (eV):
     U(  1) =   3.1200   J(  1) =   0.7000   B(  1) =   0.0803
     U(  2) =   3.1200   J(  2) =   0.7000   B(  2) =   0.0803

     16 Sym. Ops., with inversion, found ( 8 have fractional translation)

   Cartesian axes

     site n.     atom                  positions (alat units)
         1           Mn1 tau(   1) = (   0.0000000   0.0000000   0.0000000  )
         2           Mn1 tau(   2) = (   0.5000000   0.5000000   1.3079615  )
         3           Mn1 tau(   3) = (   0.0000000   0.0000000   2.6159231  )
         4           Mn1 tau(   4) = (   0.5000000   0.5000000   3.9238846  )
         5           Mn1 tau(   5) = (   0.0000000   0.0000000   5.2318461  )
         6           Mn1 tau(   6) = (   0.5000000   0.5000000   6.5398077  )
         7           Mn1 tau(   7) = (   0.0000000   0.0000000   7.8477692  )
         8           Mn2 tau(   8) = (   0.5000000   0.5000000   9.1557307  )
         9           Au  tau(   9) = (   0.5000000   0.5000000   0.4185477  )
        10           Au  tau(  10) = (   0.0000000   0.0000000   0.8894138  )
        11           Au  tau(  11) = (   0.0000000   0.0000000   1.7265092  )
        12           Au  tau(  12) = (   0.5000000   0.5000000   2.1973754  )
        13           Au  tau(  13) = (   0.5000000   0.5000000   3.0344708  )
        14           Au  tau(  14) = (   0.0000000   0.0000000   3.5053369  )
        15           Au  tau(  15) = (   0.0000000   0.0000000   4.3424323  )
        16           Au  tau(  16) = (   0.5000000   0.5000000   4.8132984  )
        17           Au  tau(  17) = (   0.5000000   0.5000000   5.6503938  )
        18           Au  tau(  18) = (   0.0000000   0.0000000   6.1212600  )
        19           Au  tau(  19) = (   0.0000000   0.0000000   6.9583554  )
        20           Au  tau(  20) = (   0.5000000   0.5000000   7.4292215  )
        21           Au  tau(  21) = (   0.5000000   0.5000000   8.2663169  )
        22           Au  tau(  22) = (   0.0000000   0.0000000   8.7371830  )
        23           Au  tau(  23) = (   0.0000000   0.0000000   9.5742784  )
        24           Au  tau(  24) = (   0.5000000   0.5000000  10.0451446  )

     number of k points=    40 (tetrahedron method)
                       cart. coord. in units 2pi/alat
        k(    1) = (   0.0000000   0.0000000   0.0000000), wk =   0.0046296
        k(    2) = (   0.0000000   0.0000000   0.0159281), wk =   0.0092593
        k(    3) = (   0.0000000   0.0000000   0.0318562), wk =   0.0092593
        k(    4) = (   0.0000000   0.0000000  -0.0477843), wk =   0.0046296
        k(    5) = (   0.0000000   0.1666667   0.0000000), wk =   0.0185185
        k(    6) = (   0.0000000   0.1666667   0.0159281), wk =   0.0370370
        k(    7) = (   0.0000000   0.1666667   0.0318562), wk =   0.0370370
        k(    8) = (   0.0000000   0.1666667  -0.0477843), wk =   0.0185185
        k(    9) = (   0.0000000   0.3333333   0.0000000), wk =   0.0185185
        k(   10) = (   0.0000000   0.3333333   0.0159281), wk =   0.0370370
        k(   11) = (   0.0000000   0.3333333   0.0318562), wk =   0.0370370
        k(   12) = (   0.0000000   0.3333333  -0.0477843), wk =   0.0185185
        k(   13) = (   0.0000000  -0.5000000   0.0000000), wk =   0.0092593
        k(   14) = (   0.0000000  -0.5000000   0.0159281), wk =   0.0185185
        k(   15) = (   0.0000000  -0.5000000   0.0318562), wk =   0.0185185
        k(   16) = (   0.0000000  -0.5000000  -0.0477843), wk =   0.0092593
        k(   17) = (   0.1666667   0.1666667   0.0000000), wk =   0.0185185
        k(   18) = (   0.1666667   0.1666667   0.0159281), wk =   0.0370370
        k(   19) = (   0.1666667   0.1666667   0.0318562), wk =   0.0370370
        k(   20) = (   0.1666667   0.1666667  -0.0477843), wk =   0.0185185
        k(   21) = (   0.1666667   0.3333333   0.0000000), wk =   0.0370370
        k(   22) = (   0.1666667   0.3333333   0.0159281), wk =   0.0740741
        k(   23) = (   0.1666667   0.3333333   0.0318562), wk =   0.0740741
        k(   24) = (   0.1666667   0.3333333  -0.0477843), wk =   0.0370370
        k(   25) = (   0.1666667  -0.5000000   0.0000000), wk =   0.0185185
        k(   26) = (   0.1666667  -0.5000000   0.0159281), wk =   0.0370370
        k(   27) = (   0.1666667  -0.5000000   0.0318562), wk =   0.0370370
        k(   28) = (   0.1666667  -0.5000000  -0.0477843), wk =   0.0185185
        k(   29) = (   0.3333333   0.3333333   0.0000000), wk =   0.0185185
        k(   30) = (   0.3333333   0.3333333   0.0159281), wk =   0.0370370
        k(   31) = (   0.3333333   0.3333333   0.0318562), wk =   0.0370370
        k(   32) = (   0.3333333   0.3333333  -0.0477843), wk =   0.0185185
        k(   33) = (   0.3333333  -0.5000000   0.0000000), wk =   0.0185185
        k(   34) = (   0.3333333  -0.5000000   0.0159281), wk =   0.0370370
        k(   35) = (   0.3333333  -0.5000000   0.0318562), wk =   0.0370370
        k(   36) = (   0.3333333  -0.5000000  -0.0477843), wk =   0.0185185
        k(   37) = (  -0.5000000  -0.5000000   0.0000000), wk =   0.0046296
        k(   38) = (  -0.5000000  -0.5000000   0.0159281), wk =   0.0092593
        k(   39) = (  -0.5000000  -0.5000000   0.0318562), wk =   0.0092593
        k(   40) = (  -0.5000000  -0.5000000  -0.0477843), wk =   0.0046296

     Check: negative/imaginary core charge=   -0.000006    0.000000

     Initial potential from superposition of free atoms

     starting charge  295.99426, renormalised to  296.00000
     Number of +U iterations with fixed ns =  0
     Starting occupations:
 --- enter write_ns ---
 LDA+U parameters:
U(  1) =   3.1200   J(  1) =   0.7000   B(  1) =   0.0803
U(  2) =   3.1200   J(  2) =   0.7000   B(  2) =   0.0803
atom    1   Tr[ns(na)] (up, down, total) =   5.00000  0.00000  5.00000
   spin  1
    eigenvalues:
  1.000  1.000  1.000  1.000  1.000
    eigenvectors:
  1.000  0.000  0.000  0.000  0.000
  0.000  1.000  0.000  0.000  0.000
  0.000  0.000  1.000  0.000  0.000
  0.000  0.000  0.000  1.000  0.000
  0.000  0.000  0.000  0.000  1.000
    occupations:
  1.000  0.000  0.000  0.000  0.000
  0.000  1.000  0.000  0.000  0.000
  0.000  0.000  1.000  0.000  0.000
  0.000  0.000  0.000  1.000  0.000
  0.000  0.000  0.000  0.000  1.000
   spin  2
    eigenvalues:
  0.000  0.000  0.000  0.000  0.000
    eigenvectors:
[...]
   spin  1
    eigenvalues:
  0.052  0.070  0.078  0.078  0.121
    eigenvectors:
  0.000  1.000  0.000  0.000  0.000
  0.000  0.000  0.295  0.705  0.000
  0.000  0.000  0.705  0.295  0.000
  1.000  0.000  0.000  0.000  0.000
  0.000  0.000  0.000  0.000  1.000
    occupations:
  0.070 -0.000 -0.000  0.000  0.000
 -0.000  0.078 -0.000  0.000  0.000
 -0.000 -0.000  0.078  0.000  0.000
  0.000  0.000  0.000  0.052 -0.000
  0.000  0.000  0.000 -0.000  0.121
   spin  2
    eigenvalues:
  1.003  1.003  1.003  1.004  1.004
    eigenvectors:
  0.000  0.000  0.000  1.000  0.000
  0.000  0.323  0.677  0.000  0.000
  0.000  0.677  0.323  0.000  0.000
  0.000  0.000  0.000  0.000  1.000
  1.000  0.000  0.000  0.000  0.000
    occupations:
  1.004 -0.000 -0.000  0.000  0.000
 -0.000  1.003 -0.000  0.000  0.000
 -0.000 -0.000  1.003  0.000  0.000
  0.000  0.000  0.000  1.004 -0.000
  0.000  0.000  0.000 -0.000  1.003
atomic mag. moment =    -4.618550
N of occupied +U levels =   43.282005
 --- exit write_ns ---

     total energy              =  -14687.29733509 Ry
     Harris-Foulkes estimate   =  -14685.83316358 Ry
     estimated scf accuracy    <      11.48017496 Ry

     total magnetization       =    30.54 Bohr mag/cell
     absolute magnetization    =    41.72 Bohr mag/cell

     iteration #  2     ecut=    45.00 Ry     beta= 0.10
     Davidson diagonalization with overlap
     ethr =  3.88E-03,  avg # of iterations =  1.0

[...]

     total energy              =  -14694.02017036 Ry
     Harris-Foulkes estimate   =  -14694.02016898 Ry
     estimated scf accuracy    <       0.00000122 Ry

[...]

     iteration # 24     ecut=    45.00 Ry     beta= 0.10
     Davidson diagonalization with overlap
     ethr =  4.11E-10,  avg # of iterations =  2.0

     Magnetic moment per site:
     atom:    1    charge:   13.5465    magn:    4.2585    constr:    0.0000
     atom:    2    charge:   13.5525    magn:    4.2157    constr:    0.0000
     atom:    3    charge:   13.5533    magn:    4.2127    constr:    0.0000
     atom:    4    charge:   13.5540    magn:    4.2098    constr:    0.0000
     atom:    5    charge:   13.5533    magn:    4.2127    constr:    0.0000
     atom:    6    charge:   13.5525    magn:    4.2157    constr:    0.0000
     atom:    7    charge:   13.5465    magn:    4.2585    constr:    0.0000
     atom:    8    charge:   13.5455    magn:   -4.2615    constr:    0.0000
     atom:    9    charge:    9.1376    magn:    0.0295    constr:    0.0000
     atom:   10    charge:    9.1371    magn:    0.0304    constr:    0.0000
     atom:   11    charge:    9.1363    magn:    0.0298    constr:    0.0000
     atom:   12    charge:    9.1350    magn:    0.0269    constr:    0.0000
     atom:   13    charge:    9.1355    magn:    0.0265    constr:    0.0000
     atom:   14    charge:    9.1360    magn:    0.0263    constr:    0.0000
     atom:   15    charge:    9.1360    magn:    0.0263    constr:    0.0000
     atom:   16    charge:    9.1355    magn:    0.0265    constr:    0.0000
     atom:   17    charge:    9.1350    magn:    0.0269    constr:    0.0000
     atom:   18    charge:    9.1363    magn:    0.0298    constr:    0.0000
     atom:   19    charge:    9.1371    magn:    0.0304    constr:    0.0000
     atom:   20    charge:    9.1376    magn:    0.0295    constr:    0.0000
     atom:   21    charge:    9.1389    magn:    0.0409    constr:    0.0000
     atom:   22    charge:    9.1401    magn:   -0.0369    constr:    0.0000
     atom:   23    charge:    9.1401    magn:   -0.0369    constr:    0.0000
     atom:   24    charge:    9.1389    magn:    0.0409    constr:    0.0000

     End of self-consistent calculation
 --- enter write_ns ---
 LDA+U parameters:
U(  1) =   3.1200   J(  1) =   0.7000   B(  1) =   0.0803
U(  2) =   3.1200   J(  2) =   0.7000   B(  2) =   0.0803
atom    1   Tr[ns(na)] (up, down, total) =   4.97559  0.71496  5.69055
   spin  1
    eigenvalues:
  0.986  0.994  0.994  0.999  1.002
    eigenvectors:
  0.000  0.000  0.000  1.000  0.000
  0.000  0.309  0.691  0.000  0.000
  0.000  0.691  0.309  0.000  0.000
  0.000  0.000  0.000  0.000  1.000
  1.000  0.000  0.000  0.000  0.000
    occupations:
  0.999 -0.000 -0.000  0.000  0.000
 -0.000  0.994 -0.000  0.000  0.000
 -0.000 -0.000  0.994  0.000  0.000
  0.000  0.000  0.000  1.002 -0.000
  0.000  0.000  0.000 -0.000  0.986
   spin  2
    eigenvalues:
  0.066  0.114  0.144  0.144  0.247
    eigenvectors:
  0.000  1.000  0.000  0.000  0.000
  0.000  0.000  0.328  0.672  0.000
  0.000  0.000  0.672  0.328  0.000
  1.000  0.000  0.000  0.000  0.000
  0.000  0.000  0.000  0.000  1.000
    occupations:
  0.114 -0.000 -0.000  0.000  0.000
 -0.000  0.144 -0.000  0.000  0.000
 -0.000 -0.000  0.144  0.000  0.000
  0.000  0.000  0.000  0.066 -0.000
  0.000  0.000  0.000 -0.000  0.247
atomic mag. moment =     4.260628
atom    2   Tr[ns(na)] (up, down, total) =   4.97222  0.75034  5.72256
   spin  1
    eigenvalues:
  0.985  0.994  0.994  0.997  1.002
    eigenvectors:
  0.000  0.000  0.000  1.000  0.000
  0.000  0.318  0.682  0.000  0.000
  0.000  0.682  0.318  0.000  0.000
  0.000  0.000  0.000  0.000  1.000
  1.000  0.000  0.000  0.000  0.000
    occupations:
  0.997 -0.000 -0.000  0.000  0.000
 -0.000  0.994 -0.000  0.000  0.000
 -0.000 -0.000  0.994  0.000  0.000
  0.000  0.000  0.000  1.002 -0.000
  0.000  0.000  0.000 -0.000  0.985
   spin  2
    eigenvalues:
  0.064  0.131  0.143  0.143  0.268
    eigenvectors:
  0.000  1.000  0.000  0.000  0.000
  0.000  0.000  0.280  0.720  0.000
  0.000  0.000  0.720  0.280  0.000
  1.000  0.000  0.000  0.000  0.000
  0.000  0.000  0.000  0.000  1.000
    occupations:
  0.131 -0.000 -0.000  0.000  0.000
 -0.000  0.143 -0.000  0.000  0.000
 -0.000 -0.000  0.143  0.000  0.000
  0.000  0.000  0.000  0.064 -0.000
  0.000  0.000  0.000 -0.000  0.268
atomic mag. moment =     4.221873
atom    3   Tr[ns(na)] (up, down, total) =   4.97197  0.75242  5.72439
   spin  1
    eigenvalues:
  0.985  0.994  0.994  0.998  1.002
    eigenvectors:
  0.000  0.000  0.000  1.000  0.000
  0.000  0.247  0.753  0.000  0.000
  0.000  0.753  0.247  0.000  0.000
  0.000  0.000  0.000  0.000  1.000
  1.000  0.000  0.000  0.000  0.000
    occupations:
  0.998 -0.000 -0.000  0.000  0.000
 -0.000  0.994 -0.000  0.000  0.000
 -0.000 -0.000  0.994  0.000  0.000
  0.000  0.000  0.000  1.002 -0.000
  0.000  0.000  0.000 -0.000  0.985
   spin  2
    eigenvalues:
  0.064  0.137  0.141  0.141  0.269
    eigenvectors:
  0.000  1.000  0.000  0.000  0.000
  0.000  0.000  0.291  0.709  0.000
  0.000  0.000  0.709  0.291  0.000
  1.000  0.000  0.000  0.000  0.000
  0.000  0.000  0.000  0.000  1.000
    occupations:
  0.137 -0.000 -0.000  0.000  0.000
 -0.000  0.141 -0.000  0.000  0.000
 -0.000 -0.000  0.141  0.000  0.000
  0.000  0.000  0.000  0.064 -0.000
  0.000  0.000  0.000 -0.000  0.269
atomic mag. moment =     4.219552
atom    4   Tr[ns(na)] (up, down, total) =   4.97166  0.75477  5.72643
   spin  1
    eigenvalues:
  0.985  0.994  0.994  0.998  1.002
    eigenvectors:
  0.000  0.000  0.000  1.000  0.000
  0.000  0.364  0.636  0.000  0.000
  0.000  0.636  0.364  0.000  0.000
  0.000  0.000  0.000  0.000  1.000
  1.000  0.000  0.000  0.000  0.000
    occupations:
  0.998 -0.000 -0.000  0.000  0.000
 -0.000  0.994 -0.000  0.000  0.000
 -0.000 -0.000  0.994  0.000  0.000
  0.000  0.000  0.000  1.002 -0.000
  0.000  0.000  0.000 -0.000  0.985
   spin  2
    eigenvalues:
  0.064  0.140  0.141  0.141  0.270
    eigenvectors:
  0.000  1.000  0.000  0.000  0.000
  0.000  0.000  0.369  0.631  0.000
  0.000  0.000  0.631  0.369  0.000
  1.000  0.000  0.000  0.000  0.000
  0.000  0.000  0.000  0.000  1.000
    occupations:
  0.140 -0.000 -0.000  0.000  0.000
 -0.000  0.141 -0.000  0.000  0.000
 -0.000 -0.000  0.141  0.000  0.000
  0.000  0.000  0.000  0.064 -0.000
  0.000  0.000  0.000 -0.000  0.270
atomic mag. moment =     4.216892
atom    5   Tr[ns(na)] (up, down, total) =   4.97197  0.75242  5.72439
   spin  1
    eigenvalues:
  0.985  0.994  0.994  0.998  1.002
    eigenvectors:
  0.000  0.000  0.000  1.000  0.000
  0.000  0.284  0.716  0.000  0.000
  0.000  0.716  0.284  0.000  0.000
  0.000  0.000  0.000  0.000  1.000
  1.000  0.000  0.000  0.000  0.000
    occupations:
  0.998 -0.000 -0.000  0.000  0.000
 -0.000  0.994 -0.000  0.000  0.000
 -0.000 -0.000  0.994  0.000  0.000
  0.000  0.000  0.000  1.002 -0.000
  0.000  0.000  0.000 -0.000  0.985
   spin  2
    eigenvalues:
  0.064  0.137  0.141  0.141  0.269
    eigenvectors:
  0.000  1.000  0.000  0.000  0.000
  0.000  0.000  0.277  0.723  0.000
  0.000  0.000  0.723  0.277  0.000
  1.000  0.000  0.000  0.000  0.000
  0.000  0.000  0.000  0.000  1.000
    occupations:
  0.137 -0.000 -0.000  0.000  0.000
 -0.000  0.141 -0.000  0.000  0.000
 -0.000 -0.000  0.141  0.000  0.000
  0.000  0.000  0.000  0.064 -0.000
  0.000  0.000  0.000 -0.000  0.269
atomic mag. moment =     4.219552
atom    6   Tr[ns(na)] (up, down, total) =   4.97222  0.75034  5.72256
   spin  1
    eigenvalues:
  0.985  0.994  0.994  0.997  1.002
    eigenvectors:
  0.000  0.000  0.000  1.000  0.000
  0.000  0.342  0.658  0.000  0.000
  0.000  0.658  0.342  0.000  0.000
  0.000  0.000  0.000  0.000  1.000
  1.000  0.000  0.000  0.000  0.000
    occupations:
  0.997 -0.000 -0.000  0.000  0.000
 -0.000  0.994 -0.000  0.000  0.000
 -0.000 -0.000  0.994  0.000  0.000
  0.000  0.000  0.000  1.002 -0.000
  0.000  0.000  0.000 -0.000  0.985
   spin  2
    eigenvalues:
  0.064  0.131  0.143  0.143  0.268
    eigenvectors:
  0.000  1.000  0.000  0.000  0.000
  0.000  0.000  0.325  0.675  0.000
  0.000  0.000  0.675  0.325  0.000
  1.000  0.000  0.000  0.000  0.000
  0.000  0.000  0.000  0.000  1.000
    occupations:
  0.131 -0.000 -0.000  0.000  0.000
 -0.000  0.143 -0.000  0.000  0.000
 -0.000 -0.000  0.143  0.000  0.000
  0.000  0.000  0.000  0.064 -0.000
  0.000  0.000  0.000 -0.000  0.268
atomic mag. moment =     4.221873
atom    7   Tr[ns(na)] (up, down, total) =   4.97559  0.71496  5.69055
   spin  1
    eigenvalues:
  0.986  0.994  0.994  0.999  1.002
    eigenvectors:
  0.000  0.000  0.000  1.000  0.000
  0.000  0.322  0.678  0.000  0.000
  0.000  0.678  0.322  0.000  0.000
  0.000  0.000  0.000  0.000  1.000
  1.000  0.000  0.000  0.000  0.000
    occupations:
  0.999 -0.000 -0.000  0.000  0.000
 -0.000  0.994 -0.000  0.000  0.000
 -0.000 -0.000  0.994  0.000  0.000
  0.000  0.000  0.000  1.002 -0.000
  0.000  0.000  0.000 -0.000  0.986
   spin  2
    eigenvalues:
  0.066  0.114  0.144  0.144  0.247
    eigenvectors:
  0.000  1.000  0.000  0.000  0.000
  0.000  0.000  0.359  0.641  0.000
  0.000  0.000  0.641  0.359  0.000
  1.000  0.000  0.000  0.000  0.000
  0.000  0.000  0.000  0.000  1.000
    occupations:
  0.114 -0.000 -0.000  0.000  0.000
 -0.000  0.144 -0.000  0.000  0.000
 -0.000 -0.000  0.144  0.000  0.000
  0.000  0.000  0.000  0.066 -0.000
  0.000  0.000  0.000 -0.000  0.247
atomic mag. moment =     4.260628
atom    8   Tr[ns(na)] (up, down, total) =   0.71785  4.97328  5.69113
   spin  1
    eigenvalues:
  0.063  0.116  0.145  0.145  0.248
    eigenvectors:
  0.000  1.000  0.000  0.000  0.000
  0.000  0.000  0.317  0.683  0.000
  0.000  0.000  0.683  0.317  0.000
  1.000  0.000  0.000  0.000  0.000
  0.000  0.000  0.000  0.000  1.000
    occupations:
  0.116 -0.000 -0.000  0.000  0.000
 -0.000  0.145 -0.000  0.000  0.000
 -0.000 -0.000  0.145  0.000  0.000
  0.000  0.000  0.000  0.063 -0.000
  0.000  0.000  0.000 -0.000  0.248
   spin  2
    eigenvalues:
  0.985  0.994  0.994  0.997  1.002
    eigenvectors:
  0.000  0.000  0.000  1.000  0.000
  0.000  0.300  0.700  0.000  0.000
  0.000  0.700  0.300  0.000  0.000
  0.000  0.000  0.000  0.000  1.000
  1.000  0.000  0.000  0.000  0.000
    occupations:
  0.997 -0.000 -0.000  0.000  0.000
 -0.000  0.994 -0.000  0.000  0.000
 -0.000 -0.000  0.994  0.000  0.000
  0.000  0.000  0.000  1.002 -0.000
  0.000  0.000  0.000 -0.000  0.985
atomic mag. moment =    -4.255435
N of occupied +U levels =   45.692567
 --- exit write_ns ---

 ------ SPIN UP ------------

          k = 0.0000 0.0000 0.0000 ( 14071 PWs)   bands (ev):

   -67.0720 -67.0720 -66.9253 -66.9253 -66.9007 -66.9007 -66.8990 -62.5370
   -35.8457 -35.8457 -35.7856 -35.7856 -35.7856 -35.7856 -35.7091 -35.7091
   -35.6818 -35.6818 -35.6800 -35.6363 -35.6363 -35.6363 -35.6363 -35.6135
   -35.6135 -35.6135 -35.6135 -35.6121 -35.6121 -31.3572 -31.3548 -31.3548
     5.5601   5.6983   5.7174   6.1092   6.1622   6.7638   6.8170   7.3939
     7.9261   8.1662   8.1727   8.1984   8.2393   8.2591   8.3025   8.3789
     8.5013   8.5057   8.5278   8.5527   8.6443   8.6909   8.8587   8.9072
     8.9783   9.1394   9.1606   9.1936   9.2298   9.2508   9.4217   9.4233
     9.5654   9.6950   9.7148   9.7412   9.7653   9.8599   9.8640   9.9075
     9.9075   9.9603   9.9873   9.9873   9.9880   9.9880  10.0629  10.1110
    10.1345  10.1345  10.1428  10.1428  10.2459  10.2474  10.2946  10.2946
    10.3009  10.3009  10.3573  10.3573  10.3756  10.3756  10.3857  10.3857
    10.4109  10.4109  10.4501  10.4501  10.4578  10.5119  10.5119  10.5409
    10.5409  10.5615  10.5645  10.7278  10.7998  10.8457  10.8457  10.8556
    10.8556  10.9490  10.9672  10.9957  11.0307  11.1329  11.2011  11.2126
    11.2597  11.2812  11.2812  11.3636  11.3844  11.3844  11.4045  11.4393
    11.5327  11.6158  11.6254  11.6863  11.7675  11.7706  11.7706  11.7918
    11.8471  11.8861  11.9200  11.9200  11.9454  11.9624  12.1699  12.2181
    12.2181  12.3303  12.3842  12.3842  12.4463  12.5100  12.5390  12.5390
    12.5822  12.6822  12.7703  12.8107  12.8276  12.9560  13.6493  13.8607
    14.8735  15.1550  16.2753  16.5873  16.5873  16.6173  16.7879  17.0002
    17.5076  18.7582  18.9407  19.8213  19.8213  20.1489  20.1489  20.1800
    20.1800  20.8211

[...]

          k =-0.5000-0.5000 0.0000 ( 14124 PWs)   bands (ev):

[...]

 ------ SPIN DOWN ----------

[...]

          k = 0.3333-0.5000-0.0478 ( 14140 PWs)   bands (ev):

[...]

          k =-0.5000-0.5000-0.0478 ( 14176 PWs)   bands (ev):

   -67.1458 -62.4589 -62.4589 -62.3515 -62.3515 -62.3308 -62.3297 -62.3297
   -35.9142 -35.8718 -35.8718 -31.2931 -31.2931 -31.2931 -31.2931 -31.2796
   -31.2796 -31.1828 -31.1828 -31.1828 -31.1828 -31.1822 -31.1822 -31.1637
   -31.1637 -31.1626 -31.1626 -31.1626 -31.1626 -31.1593 -31.1582 -31.1582
     7.9896   8.0340   8.3773   8.3818   8.4766   8.5101   8.5146   8.5470
     8.8222   8.8689   8.8757   8.8790   9.0306   9.0306   9.1081   9.1081
     9.1254   9.1510   9.1746   9.1801   9.1819   9.1819   9.1853   9.1853
     9.3761   9.3761   9.3764   9.3764   9.6099   9.6099   9.6626   9.6690
     9.6690   9.6710   9.6710  10.0540  10.0540  10.1128  10.1128  10.3357
    10.3875  10.4055  10.4591  10.4642  10.5078  10.5106  10.5207  10.5207
    10.5933  10.5933  10.9491  10.9730  11.0054  11.0054  11.0797  11.1179
    11.1179  11.3844  11.3844  11.6630  11.6932  11.6932  11.7148  11.7156
    11.7434  11.7713  11.7713  11.7745  11.7768  11.7768  11.8099  11.8101
    11.8540  11.8540  11.8569  11.8593  11.8593  11.8750  11.9389  11.9819
    11.9884  11.9915  11.9998  12.0022  12.0262  13.1588  13.1691  13.1922
    13.2007  13.2036  13.2122  13.2169  13.7306  13.7306  13.8725  13.8725
    14.0881  14.0881  14.1914  14.1914  14.4020  14.4020  14.5094  14.5094
    14.6081  14.6081  15.6101  15.6101  16.3209  16.5460  16.5685  16.5837
    16.6558  16.7656  16.7680  16.8062  16.8062  16.8512  17.0001  17.0001
    17.0941  17.0941  17.4805  17.5407  17.5568  17.6093  17.6727  17.6727
    17.7606  17.7606  17.7968  17.7968  17.8668  17.9222  17.9222  17.9387
    17.9403  17.9403  18.1087  18.1148  18.1720  18.4698  18.5592  18.5889
    18.6577  18.6577

     the Fermi energy is    15.0016 ev

!    total energy              =  -14694.02017625 Ry
     Harris-Foulkes estimate   =  -14694.02017009 Ry
     estimated scf accuracy    <       0.00000051 Ry

     total all-electron energy =   -626921.615898 Ry

     The total energy is the sum of the following terms:

     one-electron contribution =    -729.88328898 Ry
     hartree contribution      =     661.52062457 Ry
     xc contribution           =    -737.65469609 Ry
     ewald contribution        =   -2186.64874840 Ry
     Hubbard energy            =       0.44844275 Ry
     one-center paw contrib.   =  -11701.80251011 Ry

     total magnetization       =    25.94 Bohr mag/cell
     absolute magnetization    =    37.19 Bohr mag/cell

     convergence has been achieved in  24 iterations

     Writing output data file mnau2.save/

     General routines

     Parallel routines

     Hubbard U routines

   This run was terminated on:  15:38:20  29Mar2019

   JOB DONE.