     Program PWSCF v.6.3MaX starts on 29Mar2019 at 15:38:22

     R & G space division:  proc/nbgrp/npool/nimage =      32
     Waiting for input...
     Reading input from standard input

     Current dimensions of program PWSCF are:
     Max number of different atomic species (ntypx) = 10
     Max number of k-points (npk) =  40000
     Max angular momentum in pseudopotentials (lmaxx) =  3
     Message from routine read_upf::
     Pseudo file ./pseudo/Mn.pbe-spn-kjpaw_psl.0.3.1.UPF has been successfully fixed on the fly.
To avoid this message in the future you can permanently fix
 your pseudo files following instructions given in:
               file Mn.pbe-spn-kjpaw_psl.0.3.1.UPF: wavefunction(s)  3P 3D renormalized
     Message from routine read_upf::
     Pseudo file ./pseudo/Mn.pbe-spn-kjpaw_psl.0.3.1.UPF has been successfully fixed on the fly.
To avoid this message in the future you can permanently fix
 your pseudo files following instructions given in:
               file Mn.pbe-spn-kjpaw_psl.0.3.1.UPF: wavefunction(s)  3P 3D renormalized
     Message from routine read_upf::
     Pseudo file ./pseudo/Au.pbe-dn-kjpaw_psl.0.1.UPF has been successfully fixed on the fly.
To avoid this message in the future you can permanently fix
 your pseudo files following instructions given in:
               file Au.pbe-dn-kjpaw_psl.0.1.UPF: wavefunction(s)  6S 6P 5D renormalized

     bravais-lattice index     =            0
     lattice parameter (alat)  =       6.4153  a.u.
     unit-cell volume          =    2762.7331 (a.u.)^3
     number of atoms/cell      =           24
     number of atomic types    =            3
     number of electrons       =       296.00
     number of Kohn-Sham states=          178
     kinetic-energy cutoff     =      45.0000  Ry
     charge density cutoff     =     400.0000  Ry
     convergence threshold     =      1.0E-06
     mixing beta               =       0.1000
     number of iterations used =            8  plain     mixing
     Exchange-correlation      = SLA PW PBX PBC ( 1  4  3  4 0 0)

     celldm(1)=   6.415315  celldm(2)=   0.000000  celldm(3)=   0.000000
     celldm(4)=   0.000000  celldm(5)=   0.000000  celldm(6)=   0.000000

     crystal axes: (cart. coord. in units of alat)
               a(1) = (   1.000000   0.000000   0.000000 )
               a(2) = (   0.000000   1.000000   0.000000 )
               a(3) = (   0.000000   0.000000  10.463692 )

     reciprocal axes: (cart. coord. in units 2 pi/alat)
               b(1) = (  1.000000  0.000000  0.000000 )
               b(2) = (  0.000000  1.000000  0.000000 )
               b(3) = (  0.000000  0.000000  0.095569 )

     PseudoPot. # 1 for Mn read from file:
     ./pseudo/Mn.pbe-spn-kjpaw_psl.0.3.1.UPF
     MD5 check sum: 7eef95dd2aae66803482eea66ebeebf1
     Pseudo is Projector augmented-wave + core cor, Zval = 15.0
     Generated using "atomic" code by A. Dal Corso v.5.0.99 svn rev. 10869
     Shape of augmentation charge: PSQ
     Using radial grid of 1187 points,  6 beta functions with:
                l(1) =   0
                l(2) =   0
                l(3) =   1
                l(4) =   1
                l(5) =   2
                l(6) =   2
     Q(r) pseudized with 0 coefficients

     PseudoPot. # 2 for Mn read from file:
     ./pseudo/Mn.pbe-spn-kjpaw_psl.0.3.1.UPF
     MD5 check sum: 7eef95dd2aae66803482eea66ebeebf1
     Pseudo is Projector augmented-wave + core cor, Zval = 15.0
     Generated using "atomic" code by A. Dal Corso v.5.0.99 svn rev. 10869
     Shape of augmentation charge: PSQ
     Using radial grid of 1187 points,  6 beta functions with:
                l(1) =   0
                l(2) =   0
                l(3) =   1
                l(4) =   1
                l(5) =   2
                l(6) =   2
     Q(r) pseudized with 0 coefficients

     PseudoPot. # 3 for Au read from file:
     ./pseudo/Au.pbe-dn-kjpaw_psl.0.1.UPF
     MD5 check sum: 5c9b92683623e7ae2ab3f8e525febab6
     Pseudo is Projector augmented-wave + core cor, Zval = 11.0
     Generated using "atomic" code by A. Dal Corso v.5.0.2 svn rev. 9415
     Shape of augmentation charge: PSQ
     Using radial grid of 1279 points,  6 beta functions with:
                l(1) =   0
                l(2) =   0
                l(3) =   1
                l(4) =   1
                l(5) =   2
                l(6) =   2
     Q(r) pseudized with 0 coefficients

     atomic species   valence    mass     pseudopotential
        Mn1           15.00    54.93800     Mn( 1.00)
        Mn2           15.00    54.93800     Mn( 1.00)
        Au            11.00   196.96600     Au( 1.00)

     Starting magnetic structure
     atomic species   magnetization
        Mn1          0.800
        Mn2         -0.800
        Au           0.000

     Full LDA+U calculation (l_max = 2) with parameters (eV):
     U(  1) =   3.1200   J(  1) =   0.7000   B(  1) =   0.0803
     U(  2) =   3.1200   J(  2) =   0.7000   B(  2) =   0.0803

      8 Sym. Ops. (no inversion) found

   Cartesian axes

     site n.     atom                  positions (alat units)
         1           Mn1 tau(   1) = (   0.0000000   0.0000000   0.0000000  )
         2           Mn1 tau(   2) = (   0.5000000   0.5000000   1.3079615  )
         3           Mn1 tau(   3) = (   0.0000000   0.0000000   2.6159231  )
         4           Mn1 tau(   4) = (   0.5000000   0.5000000   3.9238846  )
         5           Mn1 tau(   5) = (   0.0000000   0.0000000   5.2318461  )
         6           Mn1 tau(   6) = (   0.5000000   0.5000000   6.5398077  )
         7           Mn2 tau(   7) = (   0.0000000   0.0000000   7.8477692  )
         8           Mn2 tau(   8) = (   0.5000000   0.5000000   9.1557307  )
         9           Au  tau(   9) = (   0.5000000   0.5000000   0.4185477  )
        10           Au  tau(  10) = (   0.0000000   0.0000000   0.8894138  )
        11           Au  tau(  11) = (   0.0000000   0.0000000   1.7265092  )
        12           Au  tau(  12) = (   0.5000000   0.5000000   2.1973754  )
        13           Au  tau(  13) = (   0.5000000   0.5000000   3.0344708  )
        14           Au  tau(  14) = (   0.0000000   0.0000000   3.5053369  )
        15           Au  tau(  15) = (   0.0000000   0.0000000   4.3424323  )
        16           Au  tau(  16) = (   0.5000000   0.5000000   4.8132984  )
        17           Au  tau(  17) = (   0.5000000   0.5000000   5.6503938  )
        18           Au  tau(  18) = (   0.0000000   0.0000000   6.1212600  )
        19           Au  tau(  19) = (   0.0000000   0.0000000   6.9583554  )
        20           Au  tau(  20) = (   0.5000000   0.5000000   7.4292215  )
        21           Au  tau(  21) = (   0.5000000   0.5000000   8.2663169  )
        22           Au  tau(  22) = (   0.0000000   0.0000000   8.7371830  )
        23           Au  tau(  23) = (   0.0000000   0.0000000   9.5742784  )
        24           Au  tau(  24) = (   0.5000000   0.5000000  10.0451446  )

     number of k points=    40 (tetrahedron method)
                       cart. coord. in units 2pi/alat
        k(    1) = (   0.0000000   0.0000000   0.0000000), wk =   0.0046296
        k(    2) = (   0.0000000   0.0000000   0.0159281), wk =   0.0092593
        k(    3) = (   0.0000000   0.0000000   0.0318562), wk =   0.0092593
        k(    4) = (   0.0000000   0.0000000  -0.0477843), wk =   0.0046296
        k(    5) = (   0.0000000   0.1666667   0.0000000), wk =   0.0185185
        k(    6) = (   0.0000000   0.1666667   0.0159281), wk =   0.0370370
        k(    7) = (   0.0000000   0.1666667   0.0318562), wk =   0.0370370
        k(    8) = (   0.0000000   0.1666667  -0.0477843), wk =   0.0185185
        k(    9) = (   0.0000000   0.3333333   0.0000000), wk =   0.0185185
        k(   10) = (   0.0000000   0.3333333   0.0159281), wk =   0.0370370
        k(   11) = (   0.0000000   0.3333333   0.0318562), wk =   0.0370370
        k(   12) = (   0.0000000   0.3333333  -0.0477843), wk =   0.0185185
        k(   13) = (   0.0000000  -0.5000000   0.0000000), wk =   0.0092593
        k(   14) = (   0.0000000  -0.5000000   0.0159281), wk =   0.0185185
        k(   15) = (   0.0000000  -0.5000000   0.0318562), wk =   0.0185185
        k(   16) = (   0.0000000  -0.5000000  -0.0477843), wk =   0.0092593
        k(   17) = (   0.1666667   0.1666667   0.0000000), wk =   0.0185185
        k(   18) = (   0.1666667   0.1666667   0.0159281), wk =   0.0370370
        k(   19) = (   0.1666667   0.1666667   0.0318562), wk =   0.0370370
        k(   20) = (   0.1666667   0.1666667  -0.0477843), wk =   0.0185185
        k(   21) = (   0.1666667   0.3333333   0.0000000), wk =   0.0370370
        k(   22) = (   0.1666667   0.3333333   0.0159281), wk =   0.0740741
        k(   23) = (   0.1666667   0.3333333   0.0318562), wk =   0.0740741
        k(   24) = (   0.1666667   0.3333333  -0.0477843), wk =   0.0370370
        k(   25) = (   0.1666667  -0.5000000   0.0000000), wk =   0.0185185
        k(   26) = (   0.1666667  -0.5000000   0.0159281), wk =   0.0370370
        k(   27) = (   0.1666667  -0.5000000   0.0318562), wk =   0.0370370
        k(   28) = (   0.1666667  -0.5000000  -0.0477843), wk =   0.0185185
        k(   29) = (   0.3333333   0.3333333   0.0000000), wk =   0.0185185
        k(   30) = (   0.3333333   0.3333333   0.0159281), wk =   0.0370370
        k(   31) = (   0.3333333   0.3333333   0.0318562), wk =   0.0370370
        k(   32) = (   0.3333333   0.3333333  -0.0477843), wk =   0.0185185
        k(   33) = (   0.3333333  -0.5000000   0.0000000), wk =   0.0185185
        k(   34) = (   0.3333333  -0.5000000   0.0159281), wk =   0.0370370
        k(   35) = (   0.3333333  -0.5000000   0.0318562), wk =   0.0370370
        k(   36) = (   0.3333333  -0.5000000  -0.0477843), wk =   0.0185185
        k(   37) = (  -0.5000000  -0.5000000   0.0000000), wk =   0.0046296
        k(   38) = (  -0.5000000  -0.5000000   0.0159281), wk =   0.0092593
        k(   39) = (  -0.5000000  -0.5000000   0.0318562), wk =   0.0092593
        k(   40) = (  -0.5000000  -0.5000000  -0.0477843), wk =   0.0046296

     Check: negative/imaginary core charge=   -0.000006    0.000000

     Initial potential from superposition of free atoms

     starting charge  295.99426, renormalised to  296.00000
     Number of +U iterations with fixed ns =  0
     Starting occupations:
 --- enter write_ns ---
 LDA+U parameters:
U(  1) =   3.1200   J(  1) =   0.7000   B(  1) =   0.0803
U(  2) =   3.1200   J(  2) =   0.7000   B(  2) =   0.0803
atom    1   Tr[ns(na)] (up, down, total) =   5.00000  0.00000  5.00000
   spin  1
    eigenvalues:
  1.000  1.000  1.000  1.000  1.000
    eigenvectors:
  1.000  0.000  0.000  0.000  0.000
  0.000  1.000  0.000  0.000  0.000
  0.000  0.000  1.000  0.000  0.000
  0.000  0.000  0.000  1.000  0.000
  0.000  0.000  0.000  0.000  1.000
    occupations:
  1.000  0.000  0.000  0.000  0.000
  0.000  1.000  0.000  0.000  0.000
  0.000  0.000  1.000  0.000  0.000
  0.000  0.000  0.000  1.000  0.000
  0.000  0.000  0.000  0.000  1.000
   spin  2
    eigenvalues:
  0.000  0.000  0.000  0.000  0.000
    eigenvectors:
  1.000  0.000  0.000  0.000  0.000
[...]
   spin  1
    eigenvalues:
  0.052  0.070  0.081  0.081  0.115
    eigenvectors:
  0.000  1.000  0.000  0.000  0.000
  0.000  0.000  0.384  0.616  0.000
  0.000  0.000  0.616  0.384  0.000
  1.000  0.000  0.000  0.000  0.000
  0.000  0.000  0.000  0.000  1.000
    occupations:
  0.070 -0.000 -0.000  0.000  0.000
 -0.000  0.081 -0.000  0.000  0.000
 -0.000 -0.000  0.081  0.000  0.000
  0.000  0.000  0.000  0.052 -0.000
  0.000  0.000  0.000 -0.000  0.115
   spin  2
    eigenvalues:
  1.003  1.003  1.003  1.004  1.004
    eigenvectors:
  0.000  0.000  0.000  1.000  0.000
  0.000  0.395  0.605  0.000  0.000
  0.000  0.605  0.395  0.000  0.000
  0.000  0.000  0.000  0.000  1.000
  1.000  0.000  0.000  0.000  0.000
    occupations:
  1.004 -0.000 -0.000  0.000  0.000
 -0.000  1.003 -0.000  0.000  0.000
 -0.000 -0.000  1.003  0.000  0.000
  0.000  0.000  0.000  1.004 -0.000
  0.000  0.000  0.000 -0.000  1.003
atomic mag. moment =    -4.619226
N of occupied +U levels =   43.282728
 --- exit write_ns ---

     total energy              =  -14687.29529666 Ry
     Harris-Foulkes estimate   =  -14685.83462926 Ry
     estimated scf accuracy    <      11.49579293 Ry

     total magnetization       =    20.34 Bohr mag/cell
     absolute magnetization    =    41.73 Bohr mag/cell

     iteration #  2     ecut=    45.00 Ry     beta= 0.10
     Davidson diagonalization with overlap
     ethr =  3.88E-03,  avg # of iterations =  1.0

[...]

     total energy              =  -14694.02340561 Ry
     Harris-Foulkes estimate   =  -14694.02340497 Ry
     estimated scf accuracy    <       0.00000298 Ry

[...]

     iteration # 31     ecut=    45.00 Ry     beta= 0.10
     Davidson diagonalization with overlap
     ethr =  6.17E-10,  avg # of iterations =  1.2

     Magnetic moment per site:
     atom:    1    charge:   13.5492    magn:    4.2427    constr:    0.0000
     atom:    2    charge:   13.5534    magn:    4.2127    constr:    0.0000
     atom:    3    charge:   13.5543    magn:    4.2119    constr:    0.0000
     atom:    4    charge:   13.5546    magn:    4.2114    constr:    0.0000
     atom:    5    charge:   13.5532    magn:    4.2130    constr:    0.0000
     atom:    6    charge:   13.5495    magn:    4.2428    constr:    0.0000
     atom:    7    charge:   13.5483    magn:   -4.2484    constr:    0.0000
     atom:    8    charge:   13.5482    magn:   -4.2490    constr:    0.0000
     atom:    9    charge:    9.1367    magn:    0.0298    constr:    0.0000
     atom:   10    charge:    9.1369    magn:    0.0319    constr:    0.0000
     atom:   11    charge:    9.1367    magn:    0.0318    constr:    0.0000
     atom:   12    charge:    9.1351    magn:    0.0269    constr:    0.0000
     atom:   13    charge:    9.1358    magn:    0.0268    constr:    0.0000
     atom:   14    charge:    9.1361    magn:    0.0267    constr:    0.0000
     atom:   15    charge:    9.1355    magn:    0.0267    constr:    0.0000
     atom:   16    charge:    9.1363    magn:    0.0317    constr:    0.0000
     atom:   17    charge:    9.1366    magn:    0.0318    constr:    0.0000
     atom:   18    charge:    9.1372    magn:    0.0298    constr:    0.0000
     atom:   19    charge:    9.1377    magn:    0.0372    constr:    0.0000
     atom:   20    charge:    9.1383    magn:   -0.0424    constr:    0.0000
     atom:   21    charge:    9.1379    magn:   -0.0348    constr:    0.0000
     atom:   22    charge:    9.1383    magn:   -0.0348    constr:    0.0000
     atom:   23    charge:    9.1389    magn:   -0.0423    constr:    0.0000
     atom:   24    charge:    9.1375    magn:    0.0373    constr:    0.0000

     End of self-consistent calculation
 --- enter write_ns ---
 LDA+U parameters:
U(  1) =   3.1200   J(  1) =   0.7000   B(  1) =   0.0803
U(  2) =   3.1200   J(  2) =   0.7000   B(  2) =   0.0803
atom    1   Tr[ns(na)] (up, down, total) =   4.97353  0.72931  5.70284
   spin  1
    eigenvalues:
  0.985  0.994  0.994  0.998  1.002
    eigenvectors:
  0.000  0.000  0.000  1.000  0.000
  0.000  0.309  0.691  0.000  0.000
  0.000  0.691  0.309  0.000  0.000
  0.000  0.000  0.000  0.000  1.000
  1.000  0.000  0.000  0.000  0.000
    occupations:
  0.998 -0.000 -0.000  0.000  0.000
 -0.000  0.994 -0.000  0.000  0.000
 -0.000 -0.000  0.994  0.000  0.000
  0.000  0.000  0.000  1.002 -0.000
  0.000  0.000  0.000 -0.000  0.985
   spin  2
    eigenvalues:
  0.064  0.124  0.142  0.142  0.257
    eigenvectors:
  0.000  1.000  0.000  0.000  0.000
  0.000  0.000  0.317  0.683  0.000
  0.000  0.000  0.683  0.317  0.000
  1.000  0.000  0.000  0.000  0.000
  0.000  0.000  0.000  0.000  1.000
    occupations:
  0.124 -0.000 -0.000  0.000  0.000
 -0.000  0.142 -0.000  0.000  0.000
 -0.000 -0.000  0.142  0.000  0.000
  0.000  0.000  0.000  0.064 -0.000
  0.000  0.000  0.000 -0.000  0.257
atomic mag. moment =     4.244217
atom    2   Tr[ns(na)] (up, down, total) =   4.97193  0.75420  5.72613
   spin  1
    eigenvalues:
  0.985  0.994  0.994  0.997  1.002
    eigenvectors:
  0.000  0.000  0.000  1.000  0.000
  0.000  0.308  0.692  0.000  0.000
  0.000  0.692  0.308  0.000  0.000
  0.000  0.000  0.000  0.000  1.000
  1.000  0.000  0.000  0.000  0.000
    occupations:
  0.997 -0.000 -0.000  0.000  0.000
 -0.000  0.994 -0.000  0.000  0.000
 -0.000 -0.000  0.994  0.000  0.000
  0.000  0.000  0.000  1.002 -0.000
  0.000  0.000  0.000 -0.000  0.985
   spin  2
    eigenvalues:
  0.064  0.138  0.141  0.141  0.270
    eigenvectors:
  0.000  1.000  0.000  0.000  0.000
  0.000  0.000  0.292  0.708  0.000
  0.000  0.000  0.708  0.292  0.000
  1.000  0.000  0.000  0.000  0.000
  0.000  0.000  0.000  0.000  1.000
    occupations:
  0.138 -0.000 -0.000  0.000  0.000
 -0.000  0.141 -0.000  0.000  0.000
 -0.000 -0.000  0.141  0.000  0.000
  0.000  0.000  0.000  0.064 -0.000
  0.000  0.000  0.000 -0.000  0.270
atomic mag. moment =     4.217726
atom    3   Tr[ns(na)] (up, down, total) =   4.97190  0.75499  5.72689
   spin  1
    eigenvalues:
  0.985  0.993  0.993  0.998  1.002
    eigenvectors:
  0.000  0.000  0.000  1.000  0.000
  0.000  0.305  0.695  0.000  0.000
  0.000  0.695  0.305  0.000  0.000
  0.000  0.000  0.000  0.000  1.000
  1.000  0.000  0.000  0.000  0.000
    occupations:
  0.998 -0.000 -0.000  0.000  0.000
 -0.000  0.993 -0.000  0.000  0.000
 -0.000 -0.000  0.993  0.000  0.000
  0.000  0.000  0.000  1.002 -0.000
  0.000  0.000  0.000 -0.000  0.985
   spin  2
    eigenvalues:
  0.064  0.141  0.142  0.142  0.267
    eigenvectors:
  0.000  1.000  0.000  0.000  0.000
  0.000  0.000  0.321  0.679  0.000
  0.000  0.000  0.679  0.321  0.000
  1.000  0.000  0.000  0.000  0.000
  0.000  0.000  0.000  0.000  1.000
    occupations:
  0.141 -0.000 -0.000  0.000  0.000
 -0.000  0.142 -0.000  0.000  0.000
 -0.000 -0.000  0.142  0.000  0.000
  0.000  0.000  0.000  0.064 -0.000
  0.000  0.000  0.000 -0.000  0.267
atomic mag. moment =     4.216912
atom    4   Tr[ns(na)] (up, down, total) =   4.97174  0.75555  5.72729
   spin  1
    eigenvalues:
  0.985  0.993  0.993  0.998  1.002
    eigenvectors:
  0.000  0.000  0.000  1.000  0.000
  0.000  0.260  0.740  0.000  0.000
  0.000  0.740  0.260  0.000  0.000
  0.000  0.000  0.000  0.000  1.000
  1.000  0.000  0.000  0.000  0.000
    occupations:
  0.998 -0.000 -0.000  0.000  0.000
 -0.000  0.993 -0.000  0.000  0.000
 -0.000 -0.000  0.993  0.000  0.000
  0.000  0.000  0.000  1.002 -0.000
  0.000  0.000  0.000 -0.000  0.985
   spin  2
    eigenvalues:
  0.064  0.141  0.141  0.141  0.269
    eigenvectors:
  0.000  1.000  0.000  0.000  0.000
  0.000  0.000  0.315  0.685  0.000
  0.000  0.000  0.685  0.315  0.000
  1.000  0.000  0.000  0.000  0.000
  0.000  0.000  0.000  0.000  1.000
    occupations:
  0.141 -0.000 -0.000  0.000  0.000
 -0.000  0.141 -0.000  0.000  0.000
 -0.000 -0.000  0.141  0.000  0.000
  0.000  0.000  0.000  0.064 -0.000
  0.000  0.000  0.000 -0.000  0.269
atomic mag. moment =     4.216189
atom    5   Tr[ns(na)] (up, down, total) =   4.97211  0.75371  5.72582
   spin  1
    eigenvalues:
  0.985  0.994  0.994  0.997  1.002
    eigenvectors:
  0.000  0.000  0.000  1.000  0.000
  0.000  0.351  0.649  0.000  0.000
  0.000  0.649  0.351  0.000  0.000
  0.000  0.000  0.000  0.000  1.000
  1.000  0.000  0.000  0.000  0.000
    occupations:
  0.997 -0.000 -0.000  0.000  0.000
 -0.000  0.994 -0.000  0.000  0.000
 -0.000 -0.000  0.994  0.000  0.000
  0.000  0.000  0.000  1.002 -0.000
  0.000  0.000  0.000 -0.000  0.985
   spin  2
    eigenvalues:
  0.064  0.138  0.142  0.142  0.268
    eigenvectors:
  0.000  1.000  0.000  0.000  0.000
  0.000  0.000  0.383  0.617  0.000
  0.000  0.000  0.617  0.383  0.000
  1.000  0.000  0.000  0.000  0.000
  0.000  0.000  0.000  0.000  1.000
    occupations:
  0.138 -0.000 -0.000  0.000  0.000
 -0.000  0.142 -0.000  0.000  0.000
 -0.000 -0.000  0.142  0.000  0.000
  0.000  0.000  0.000  0.064 -0.000
  0.000  0.000  0.000 -0.000  0.268
atomic mag. moment =     4.218395
atom    6   Tr[ns(na)] (up, down, total) =   4.97348  0.72944  5.70291
   spin  1
    eigenvalues:
  0.985  0.994  0.994  0.998  1.002
    eigenvectors:
  0.000  0.000  0.000  1.000  0.000
  0.000  0.313  0.687  0.000  0.000
  0.000  0.687  0.313  0.000  0.000
  0.000  0.000  0.000  0.000  1.000
  1.000  0.000  0.000  0.000  0.000
    occupations:
  0.998 -0.000 -0.000  0.000  0.000
 -0.000  0.994 -0.000  0.000  0.000
 -0.000 -0.000  0.994  0.000  0.000
  0.000  0.000  0.000  1.002 -0.000
  0.000  0.000  0.000 -0.000  0.985
   spin  2
    eigenvalues:
  0.064  0.124  0.142  0.142  0.258
    eigenvectors:
  0.000  1.000  0.000  0.000  0.000
  0.000  0.000  0.337  0.663  0.000
  0.000  0.000  0.663  0.337  0.000
  1.000  0.000  0.000  0.000  0.000
  0.000  0.000  0.000  0.000  1.000
    occupations:
  0.124 -0.000 -0.000  0.000  0.000
 -0.000  0.142 -0.000  0.000  0.000
 -0.000 -0.000  0.142  0.000  0.000
  0.000  0.000  0.000  0.064 -0.000
  0.000  0.000  0.000 -0.000  0.258
atomic mag. moment =     4.244042
atom    7   Tr[ns(na)] (up, down, total) =   0.72818  4.97403  5.70221
   spin  1
    eigenvalues:
  0.064  0.127  0.140  0.140  0.257
    eigenvectors:
  0.000  1.000  0.000  0.000  0.000
  0.000  0.000  0.350  0.650  0.000
  0.000  0.000  0.650  0.350  0.000
  1.000  0.000  0.000  0.000  0.000
  0.000  0.000  0.000  0.000  1.000
    occupations:
  0.127 -0.000 -0.000  0.000  0.000
 -0.000  0.140 -0.000  0.000  0.000
 -0.000 -0.000  0.140  0.000  0.000
  0.000  0.000  0.000  0.064 -0.000
  0.000  0.000  0.000 -0.000  0.257
   spin  2
    eigenvalues:
  0.985  0.994  0.994  0.998  1.002
    eigenvectors:
  0.000  0.000  0.000  1.000  0.000
  0.000  0.275  0.725  0.000  0.000
  0.000  0.725  0.275  0.000  0.000
  0.000  0.000  0.000  0.000  1.000
  1.000  0.000  0.000  0.000  0.000
    occupations:
  0.998 -0.000 -0.000  0.000  0.000
 -0.000  0.994 -0.000  0.000  0.000
 -0.000 -0.000  0.994  0.000  0.000
  0.000  0.000  0.000  1.002 -0.000
  0.000  0.000  0.000 -0.000  0.985
atomic mag. moment =    -4.245851
atom    8   Tr[ns(na)] (up, down, total) =   0.72756  4.97416  5.70172
   spin  1
    eigenvalues:
  0.064  0.127  0.141  0.141  0.255
    eigenvectors:
  0.000  1.000  0.000  0.000  0.000
  0.000  0.000  0.243  0.757  0.000
  0.000  0.000  0.757  0.243  0.000
  1.000  0.000  0.000  0.000  0.000
  0.000  0.000  0.000  0.000  1.000
    occupations:
  0.127 -0.000 -0.000  0.000  0.000
 -0.000  0.141 -0.000  0.000  0.000
 -0.000 -0.000  0.141  0.000  0.000
  0.000  0.000  0.000  0.064 -0.000
  0.000  0.000  0.000 -0.000  0.255
   spin  2
    eigenvalues:
  0.986  0.994  0.994  0.998  1.002
    eigenvectors:
  0.000  0.000  0.000  1.000  0.000
  0.000  0.309  0.691  0.000  0.000
  0.000  0.691  0.309  0.000  0.000
  0.000  0.000  0.000  0.000  1.000
  1.000  0.000  0.000  0.000  0.000
    occupations:
  0.998 -0.000 -0.000  0.000  0.000
 -0.000  0.994 -0.000  0.000  0.000
 -0.000 -0.000  0.994  0.000  0.000
  0.000  0.000  0.000  1.002 -0.000
  0.000  0.000  0.000 -0.000  0.986
atomic mag. moment =    -4.246593
N of occupied +U levels =   45.715819
 --- exit write_ns ---

 ------ SPIN UP ------------

          k = 0.0000 0.0000 0.0000 ( 14071 PWs)   bands (ev):

   -67.0217 -67.0209 -66.9142 -66.9138 -66.8925 -66.8919 -62.4604 -62.4586
   -35.7985 -35.7982 -35.7347 -35.7347 -35.7334 -35.7334 -35.6959 -35.6951
   -35.6711 -35.6699 -35.6272 -35.6272 -35.6262 -35.6262 -35.6077 -35.6077
   -35.6062 -35.6062 -31.2840 -31.2828 -31.2786 -31.2786 -31.2766 -31.2766
     5.5796   5.7001   5.7627   6.1521   6.1706   6.7794   6.8389   7.3944
     7.9847   8.1722   8.1875   8.2151   8.2593   8.3090   8.3755   8.4513
     8.5366   8.5879   8.5936   8.6248   8.7922   8.8446   8.9275   8.9760
     8.9877   9.1577   9.1993   9.2000   9.3205   9.3445   9.4245   9.6112
     9.6595   9.7040   9.7329   9.8076   9.8727   9.9214   9.9233   9.9233
     9.9787   9.9787   9.9924   9.9924  10.0432  10.0612  10.1385  10.1385
    10.1434  10.1434  10.1767  10.2368  10.3046  10.3216  10.3216  10.3236
    10.3236  10.3677  10.3677  10.3815  10.3815  10.3983  10.3983  10.4223
    10.4338  10.4338  10.4578  10.5058  10.5058  10.5305  10.5305  10.6170
    10.7215  10.7270  10.8123  10.8123  10.8427  10.8595  10.8595  10.9655
    11.0067  11.0591  11.0650  11.1972  11.2543  11.2719  11.2719  11.3034
    11.3254  11.3254  11.3655  11.4436  11.5194  11.5865  11.6089  11.6594
    11.6594  11.7512  11.7639  11.7889  11.8212  11.8305  11.8305  11.8624
    11.9393  11.9626  12.1197  12.1197  12.2076  12.3454  12.3454  12.3699
    12.5144  12.5169  12.5241  12.5241  12.6457  12.7492  12.7821  12.8217
    12.8895  13.5270  13.7176  14.6462  15.0948  16.1204  16.5293  16.5293
    16.6538  16.7071  16.8074  16.8097  16.8097  16.8566  17.0179  17.1816
    17.6993  18.8277  19.1178  19.8492  19.8492  20.1681  20.1681  20.2564
    20.2564  20.9099

[...]

          k =-0.5000-0.5000 0.0000 ( 14124 PWs)   bands (ev):

[...]

 ------ SPIN DOWN ----------

[...]

          k = 0.3333-0.5000-0.0478 ( 14140 PWs)   bands (ev):

[...]

          k =-0.5000-0.5000-0.0478 ( 14176 PWs)   bands (ev):

   -67.0591 -67.0565 -62.4252 -62.4246 -62.3439 -62.3435 -62.3238 -62.3236
   -35.8325 -35.8320 -35.7847 -35.7847 -35.7811 -35.7811 -31.2586 -31.2586
   -31.2580 -31.2580 -31.2482 -31.2477 -31.1759 -31.1759 -31.1753 -31.1753
   -31.1740 -31.1739 -31.1573 -31.1573 -31.1573 -31.1573 -31.1517 -31.1512
     7.8938   7.8963   8.2880   8.2893   8.4287   8.4296   8.5047   8.5055
     8.7793   8.7805   8.8642   8.8650   9.0348   9.0348   9.0947   9.0947
     9.1246   9.1256   9.1611   9.1618   9.1674   9.1674   9.1811   9.1811
     9.3636   9.3636   9.3706   9.3706   9.6070   9.6070   9.6527   9.6527
     9.6590   9.6590   9.6670   9.6705   9.7502   9.7502  10.0431  10.0431
    10.1360  10.1360  10.3763  10.3766  10.4388  10.4391  10.5039  10.5043
    10.5474  10.5474  10.6386  10.6386  10.9023  10.9034  11.1047  11.1047
    11.1182  11.1182  11.1420  11.1428  11.1631  11.1666  11.4038  11.4038
    11.6930  11.6936  11.7268  11.7277  11.7703  11.7709  11.7738  11.7739
    11.7755  11.7758  11.8155  11.8155  11.8532  11.8539  11.8563  11.8564
    11.9300  11.9305  11.9861  11.9864  11.9984  11.9987  12.0220  12.0220
    12.0320  12.0321  13.1646  13.1656  13.1957  13.1980  13.2123  13.2148
    13.6949  13.6949  13.8880  13.8880  14.1274  14.1274  14.2709  14.2709
    14.4879  14.4879  14.5935  14.5935  14.9492  14.9492  16.3147  16.3147
    16.3855  16.3875  16.5774  16.5778  16.6779  16.6780  16.7802  16.7804
    16.8792  16.8792  17.0072  17.0072  17.4863  17.4866  17.5079  17.5079
    17.5567  17.5569  17.6875  17.6875  17.8429  17.8449  17.8843  17.8844
    17.9262  17.9278  17.9412  17.9434  18.1500  18.1504  18.5068  18.5082
    18.5768  18.5768

     the Fermi energy is    15.0038 ev

!    total energy              =  -14694.02340723 Ry
     Harris-Foulkes estimate   =  -14694.02340468 Ry
     estimated scf accuracy    <       0.00000049 Ry

     total all-electron energy =   -626921.619129 Ry

     The total energy is the sum of the following terms:

     one-electron contribution =    -729.93379742 Ry
     hartree contribution      =     661.56493404 Ry
     xc contribution           =    -737.65565395 Ry
     ewald contribution        =   -2186.64874840 Ry
     Hubbard energy            =       0.44989745 Ry
     one-center paw contrib.   =  -11701.80003895 Ry

     total magnetization       =    17.20 Bohr mag/cell
     absolute magnetization    =    37.18 Bohr mag/cell

     convergence has been achieved in  31 iterations

     Writing output data file mnau2.save/

     General routines

     Parallel routines

     Hubbard U routines

   This run was terminated on:  16: 5:17  29Mar2019

   JOB DONE.