     Program PWSCF v.6.3MaX starts on 29Mar2019 at 16: 5:20

     R & G space division:  proc/nbgrp/npool/nimage =      32
     Waiting for input...
     Reading input from standard input

     Current dimensions of program PWSCF are:
     Max number of different atomic species (ntypx) = 10
     Max number of k-points (npk) =  40000
     Max angular momentum in pseudopotentials (lmaxx) =  3
     Message from routine read_upf::
     Pseudo file ./pseudo/Mn.pbe-spn-kjpaw_psl.0.3.1.UPF has been successfully fixed on the fly.
To avoid this message in the future you can permanently fix
 your pseudo files following instructions given in:
               file Mn.pbe-spn-kjpaw_psl.0.3.1.UPF: wavefunction(s)  3P 3D renormalized
     Message from routine read_upf::
     Pseudo file ./pseudo/Mn.pbe-spn-kjpaw_psl.0.3.1.UPF has been successfully fixed on the fly.
To avoid this message in the future you can permanently fix
 your pseudo files following instructions given in:
               file Mn.pbe-spn-kjpaw_psl.0.3.1.UPF: wavefunction(s)  3P 3D renormalized
     Message from routine read_upf::
     Pseudo file ./pseudo/Au.pbe-dn-kjpaw_psl.0.1.UPF has been successfully fixed on the fly.
To avoid this message in the future you can permanently fix
 your pseudo files following instructions given in:
               file Au.pbe-dn-kjpaw_psl.0.1.UPF: wavefunction(s)  6S 6P 5D renormalized

     bravais-lattice index     =            0
     lattice parameter (alat)  =       6.4153  a.u.
     unit-cell volume          =    2762.7331 (a.u.)^3
     number of atoms/cell      =           24
     number of atomic types    =            3
     number of electrons       =       296.00
     number of Kohn-Sham states=          178
     kinetic-energy cutoff     =      45.0000  Ry
     charge density cutoff     =     400.0000  Ry
     convergence threshold     =      1.0E-06
     mixing beta               =       0.1000
     number of iterations used =            8  plain     mixing
     Exchange-correlation      = SLA PW PBX PBC ( 1  4  3  4 0 0)

     celldm(1)=   6.415315  celldm(2)=   0.000000  celldm(3)=   0.000000
     celldm(4)=   0.000000  celldm(5)=   0.000000  celldm(6)=   0.000000

     crystal axes: (cart. coord. in units of alat)
               a(1) = (   1.000000   0.000000   0.000000 )
               a(2) = (   0.000000   1.000000   0.000000 )
               a(3) = (   0.000000   0.000000  10.463692 )

     reciprocal axes: (cart. coord. in units 2 pi/alat)
               b(1) = (  1.000000  0.000000  0.000000 )
               b(2) = (  0.000000  1.000000  0.000000 )
               b(3) = (  0.000000  0.000000  0.095569 )

     PseudoPot. # 1 for Mn read from file:
     ./pseudo/Mn.pbe-spn-kjpaw_psl.0.3.1.UPF
     MD5 check sum: 7eef95dd2aae66803482eea66ebeebf1
     Pseudo is Projector augmented-wave + core cor, Zval = 15.0
     Generated using "atomic" code by A. Dal Corso v.5.0.99 svn rev. 10869
     Shape of augmentation charge: PSQ
     Using radial grid of 1187 points,  6 beta functions with:
                l(1) =   0
                l(2) =   0
                l(3) =   1
                l(4) =   1
                l(5) =   2
                l(6) =   2
     Q(r) pseudized with 0 coefficients

     PseudoPot. # 2 for Mn read from file:
     ./pseudo/Mn.pbe-spn-kjpaw_psl.0.3.1.UPF
     MD5 check sum: 7eef95dd2aae66803482eea66ebeebf1
     Pseudo is Projector augmented-wave + core cor, Zval = 15.0
     Generated using "atomic" code by A. Dal Corso v.5.0.99 svn rev. 10869
     Shape of augmentation charge: PSQ
     Using radial grid of 1187 points,  6 beta functions with:
                l(1) =   0
                l(2) =   0
                l(3) =   1
                l(4) =   1
                l(5) =   2
                l(6) =   2
     Q(r) pseudized with 0 coefficients

     PseudoPot. # 3 for Au read from file:
     ./pseudo/Au.pbe-dn-kjpaw_psl.0.1.UPF
     MD5 check sum: 5c9b92683623e7ae2ab3f8e525febab6
     Pseudo is Projector augmented-wave + core cor, Zval = 11.0
     Generated using "atomic" code by A. Dal Corso v.5.0.2 svn rev. 9415
     Shape of augmentation charge: PSQ
     Using radial grid of 1279 points,  6 beta functions with:
                l(1) =   0
                l(2) =   0
                l(3) =   1
                l(4) =   1
                l(5) =   2
                l(6) =   2
     Q(r) pseudized with 0 coefficients

     atomic species   valence    mass     pseudopotential
        Mn1           15.00    54.93800     Mn( 1.00)
        Mn2           15.00    54.93800     Mn( 1.00)
        Au            11.00   196.96600     Au( 1.00)

     Starting magnetic structure
     atomic species   magnetization
        Mn1          0.800
        Mn2         -0.800
        Au           0.000

     Full LDA+U calculation (l_max = 2) with parameters (eV):
     U(  1) =   3.1200   J(  1) =   0.7000   B(  1) =   0.0803
     U(  2) =   3.1200   J(  2) =   0.7000   B(  2) =   0.0803

     16 Sym. Ops., with inversion, found ( 8 have fractional translation)

   Cartesian axes

     site n.     atom                  positions (alat units)
         1           Mn1 tau(   1) = (   0.0000000   0.0000000   0.0000000  )
         2           Mn1 tau(   2) = (   0.5000000   0.5000000   1.3079615  )
         3           Mn1 tau(   3) = (   0.0000000   0.0000000   2.6159231  )
         4           Mn1 tau(   4) = (   0.5000000   0.5000000   3.9238846  )
         5           Mn1 tau(   5) = (   0.0000000   0.0000000   5.2318461  )
         6           Mn2 tau(   6) = (   0.5000000   0.5000000   6.5398077  )
         7           Mn1 tau(   7) = (   0.0000000   0.0000000   7.8477692  )
         8           Mn2 tau(   8) = (   0.5000000   0.5000000   9.1557307  )
         9           Au  tau(   9) = (   0.5000000   0.5000000   0.4185477  )
        10           Au  tau(  10) = (   0.0000000   0.0000000   0.8894138  )
        11           Au  tau(  11) = (   0.0000000   0.0000000   1.7265092  )
        12           Au  tau(  12) = (   0.5000000   0.5000000   2.1973754  )
        13           Au  tau(  13) = (   0.5000000   0.5000000   3.0344708  )
        14           Au  tau(  14) = (   0.0000000   0.0000000   3.5053369  )
        15           Au  tau(  15) = (   0.0000000   0.0000000   4.3424323  )
        16           Au  tau(  16) = (   0.5000000   0.5000000   4.8132984  )
        17           Au  tau(  17) = (   0.5000000   0.5000000   5.6503938  )
        18           Au  tau(  18) = (   0.0000000   0.0000000   6.1212600  )
        19           Au  tau(  19) = (   0.0000000   0.0000000   6.9583554  )
        20           Au  tau(  20) = (   0.5000000   0.5000000   7.4292215  )
        21           Au  tau(  21) = (   0.5000000   0.5000000   8.2663169  )
        22           Au  tau(  22) = (   0.0000000   0.0000000   8.7371830  )
        23           Au  tau(  23) = (   0.0000000   0.0000000   9.5742784  )
        24           Au  tau(  24) = (   0.5000000   0.5000000  10.0451446  )

     number of k points=    40 (tetrahedron method)
                       cart. coord. in units 2pi/alat
        k(    1) = (   0.0000000   0.0000000   0.0000000), wk =   0.0046296
        k(    2) = (   0.0000000   0.0000000   0.0159281), wk =   0.0092593
        k(    3) = (   0.0000000   0.0000000   0.0318562), wk =   0.0092593
        k(    4) = (   0.0000000   0.0000000  -0.0477843), wk =   0.0046296
        k(    5) = (   0.0000000   0.1666667   0.0000000), wk =   0.0185185
        k(    6) = (   0.0000000   0.1666667   0.0159281), wk =   0.0370370
        k(    7) = (   0.0000000   0.1666667   0.0318562), wk =   0.0370370
        k(    8) = (   0.0000000   0.1666667  -0.0477843), wk =   0.0185185
        k(    9) = (   0.0000000   0.3333333   0.0000000), wk =   0.0185185
        k(   10) = (   0.0000000   0.3333333   0.0159281), wk =   0.0370370
        k(   11) = (   0.0000000   0.3333333   0.0318562), wk =   0.0370370
        k(   12) = (   0.0000000   0.3333333  -0.0477843), wk =   0.0185185
        k(   13) = (   0.0000000  -0.5000000   0.0000000), wk =   0.0092593
        k(   14) = (   0.0000000  -0.5000000   0.0159281), wk =   0.0185185
        k(   15) = (   0.0000000  -0.5000000   0.0318562), wk =   0.0185185
        k(   16) = (   0.0000000  -0.5000000  -0.0477843), wk =   0.0092593
        k(   17) = (   0.1666667   0.1666667   0.0000000), wk =   0.0185185
        k(   18) = (   0.1666667   0.1666667   0.0159281), wk =   0.0370370
        k(   19) = (   0.1666667   0.1666667   0.0318562), wk =   0.0370370
        k(   20) = (   0.1666667   0.1666667  -0.0477843), wk =   0.0185185
        k(   21) = (   0.1666667   0.3333333   0.0000000), wk =   0.0370370
        k(   22) = (   0.1666667   0.3333333   0.0159281), wk =   0.0740741
        k(   23) = (   0.1666667   0.3333333   0.0318562), wk =   0.0740741
        k(   24) = (   0.1666667   0.3333333  -0.0477843), wk =   0.0370370
        k(   25) = (   0.1666667  -0.5000000   0.0000000), wk =   0.0185185
        k(   26) = (   0.1666667  -0.5000000   0.0159281), wk =   0.0370370
        k(   27) = (   0.1666667  -0.5000000   0.0318562), wk =   0.0370370
        k(   28) = (   0.1666667  -0.5000000  -0.0477843), wk =   0.0185185
        k(   29) = (   0.3333333   0.3333333   0.0000000), wk =   0.0185185
        k(   30) = (   0.3333333   0.3333333   0.0159281), wk =   0.0370370
        k(   31) = (   0.3333333   0.3333333   0.0318562), wk =   0.0370370
        k(   32) = (   0.3333333   0.3333333  -0.0477843), wk =   0.0185185
        k(   33) = (   0.3333333  -0.5000000   0.0000000), wk =   0.0185185
        k(   34) = (   0.3333333  -0.5000000   0.0159281), wk =   0.0370370
        k(   35) = (   0.3333333  -0.5000000   0.0318562), wk =   0.0370370
        k(   36) = (   0.3333333  -0.5000000  -0.0477843), wk =   0.0185185
        k(   37) = (  -0.5000000  -0.5000000   0.0000000), wk =   0.0046296
        k(   38) = (  -0.5000000  -0.5000000   0.0159281), wk =   0.0092593
        k(   39) = (  -0.5000000  -0.5000000   0.0318562), wk =   0.0092593
        k(   40) = (  -0.5000000  -0.5000000  -0.0477843), wk =   0.0046296

     Check: negative/imaginary core charge=   -0.000006    0.000000

     Initial potential from superposition of free atoms

     starting charge  295.99426, renormalised to  296.00000
     Number of +U iterations with fixed ns =  0
     Starting occupations:
 --- enter write_ns ---
 LDA+U parameters:
U(  1) =   3.1200   J(  1) =   0.7000   B(  1) =   0.0803
U(  2) =   3.1200   J(  2) =   0.7000   B(  2) =   0.0803
atom    1   Tr[ns(na)] (up, down, total) =   5.00000  0.00000  5.00000
   spin  1
    eigenvalues:
  1.000  1.000  1.000  1.000  1.000
    eigenvectors:
  1.000  0.000  0.000  0.000  0.000
  0.000  1.000  0.000  0.000  0.000
  0.000  0.000  1.000  0.000  0.000
  0.000  0.000  0.000  1.000  0.000
  0.000  0.000  0.000  0.000  1.000
    occupations:
  1.000  0.000  0.000  0.000  0.000
  0.000  1.000  0.000  0.000  0.000
  0.000  0.000  1.000  0.000  0.000
  0.000  0.000  0.000  1.000  0.000
  0.000  0.000  0.000  0.000  1.000
   spin  2
    eigenvalues:
  0.000  0.000  0.000  0.000  0.000
    eigenvectors:
[...]
   spin  1
    eigenvalues:
  0.052  0.070  0.078  0.078  0.121
    eigenvectors:
  0.000  1.000  0.000  0.000  0.000
  0.000  0.000  0.261  0.739  0.000
  0.000  0.000  0.739  0.261  0.000
  1.000  0.000  0.000  0.000  0.000
  0.000  0.000  0.000  0.000  1.000
    occupations:
  0.070 -0.000 -0.000  0.000  0.000
 -0.000  0.078 -0.000  0.000  0.000
 -0.000 -0.000  0.078  0.000  0.000
  0.000  0.000  0.000  0.052 -0.000
  0.000  0.000  0.000 -0.000  0.121
   spin  2
    eigenvalues:
  1.003  1.003  1.003  1.004  1.004
    eigenvectors:
  0.000  0.000  0.000  1.000  0.000
  0.000  0.315  0.685  0.000  0.000
  0.000  0.685  0.315  0.000  0.000
  0.000  0.000  0.000  0.000  1.000
  1.000  0.000  0.000  0.000  0.000
    occupations:
  1.004 -0.000 -0.000  0.000  0.000
 -0.000  1.003 -0.000  0.000  0.000
 -0.000 -0.000  1.003  0.000  0.000
  0.000  0.000  0.000  1.004 -0.000
  0.000  0.000  0.000 -0.000  1.003
atomic mag. moment =    -4.617915
N of occupied +U levels =   43.297888
 --- exit write_ns ---

     total energy              =  -14687.30234478 Ry
     Harris-Foulkes estimate   =  -14685.84046983 Ry
     estimated scf accuracy    <      11.49689177 Ry

     total magnetization       =    20.35 Bohr mag/cell
     absolute magnetization    =    41.74 Bohr mag/cell

     iteration #  2     ecut=    45.00 Ry     beta= 0.10
     Davidson diagonalization with overlap
     ethr =  3.88E-03,  avg # of iterations =  1.0

[...]

     total energy              =  -14694.01518968 Ry
     Harris-Foulkes estimate   =  -14694.01518881 Ry
     estimated scf accuracy    <       0.00000127 Ry

[...]

     iteration # 25     ecut=    45.00 Ry     beta= 0.10
     Davidson diagonalization with overlap
     ethr =  4.29E-10,  avg # of iterations =  2.5

     Magnetic moment per site:
     atom:    1    charge:   13.5470    magn:    4.2528    constr:    0.0000
     atom:    2    charge:   13.5529    magn:    4.2144    constr:    0.0000
     atom:    3    charge:   13.5533    magn:    4.2158    constr:    0.0000
     atom:    4    charge:   13.5529    magn:    4.2144    constr:    0.0000
     atom:    5    charge:   13.5470    magn:    4.2528    constr:    0.0000
     atom:    6    charge:   13.5444    magn:   -4.2718    constr:    0.0000
     atom:    7    charge:   13.5412    magn:    4.2901    constr:    0.0000
     atom:    8    charge:   13.5444    magn:   -4.2718    constr:    0.0000
     atom:    9    charge:    9.1375    magn:    0.0289    constr:    0.0000
     atom:   10    charge:    9.1369    magn:    0.0290    constr:    0.0000
     atom:   11    charge:    9.1363    magn:    0.0302    constr:    0.0000
     atom:   12    charge:    9.1349    magn:    0.0265    constr:    0.0000
     atom:   13    charge:    9.1349    magn:    0.0265    constr:    0.0000
     atom:   14    charge:    9.1363    magn:    0.0302    constr:    0.0000
     atom:   15    charge:    9.1369    magn:    0.0290    constr:    0.0000
     atom:   16    charge:    9.1375    magn:    0.0289    constr:    0.0000
     atom:   17    charge:    9.1393    magn:    0.0385    constr:    0.0000
     atom:   18    charge:    9.1400    magn:   -0.0372    constr:    0.0000
     atom:   19    charge:    9.1407    magn:   -0.0330    constr:    0.0000
     atom:   20    charge:    9.1406    magn:    0.0368    constr:    0.0000
     atom:   21    charge:    9.1406    magn:    0.0368    constr:    0.0000
     atom:   22    charge:    9.1407    magn:   -0.0330    constr:    0.0000
     atom:   23    charge:    9.1400    magn:   -0.0372    constr:    0.0000
     atom:   24    charge:    9.1393    magn:    0.0385    constr:    0.0000

     End of self-consistent calculation
 --- enter write_ns ---
 LDA+U parameters:
U(  1) =   3.1200   J(  1) =   0.7000   B(  1) =   0.0803
U(  2) =   3.1200   J(  2) =   0.7000   B(  2) =   0.0803
atom    1   Tr[ns(na)] (up, down, total) =   4.97511  0.71968  5.69479
   spin  1
    eigenvalues:
  0.986  0.995  0.995  0.998  1.002
    eigenvectors:
  0.000  0.000  0.000  1.000  0.000
  0.000  0.307  0.693  0.000  0.000
  0.000  0.693  0.307  0.000  0.000
  0.000  0.000  0.000  0.000  1.000
  1.000  0.000  0.000  0.000  0.000
    occupations:
  0.998 -0.000 -0.000  0.000  0.000
 -0.000  0.995 -0.000  0.000  0.000
 -0.000 -0.000  0.995  0.000  0.000
  0.000  0.000  0.000  1.002 -0.000
  0.000  0.000  0.000 -0.000  0.986
   spin  2
    eigenvalues:
  0.066  0.124  0.140  0.140  0.248
    eigenvectors:
  0.000  1.000  0.000  0.000  0.000
  0.000  0.000  0.382  0.618  0.000
  0.000  0.000  0.618  0.382  0.000
  1.000  0.000  0.000  0.000  0.000
  0.000  0.000  0.000  0.000  1.000
    occupations:
  0.124 -0.000 -0.000  0.000  0.000
 -0.000  0.140 -0.000  0.000  0.000
 -0.000 -0.000  0.140  0.000  0.000
  0.000  0.000  0.000  0.066 -0.000
  0.000  0.000  0.000 -0.000  0.248
atomic mag. moment =     4.255424
atom    2   Tr[ns(na)] (up, down, total) =   4.97205  0.75242  5.72447
   spin  1
    eigenvalues:
  0.985  0.994  0.994  0.997  1.002
    eigenvectors:
  0.000  0.000  0.000  1.000  0.000
  0.000  0.339  0.661  0.000  0.000
  0.000  0.661  0.339  0.000  0.000
  0.000  0.000  0.000  0.000  1.000
  1.000  0.000  0.000  0.000  0.000
    occupations:
  0.997 -0.000 -0.000  0.000  0.000
 -0.000  0.994 -0.000  0.000  0.000
 -0.000 -0.000  0.994  0.000  0.000
  0.000  0.000  0.000  1.002 -0.000
  0.000  0.000  0.000 -0.000  0.985
   spin  2
    eigenvalues:
  0.064  0.136  0.143  0.143  0.268
    eigenvectors:
  0.000  1.000  0.000  0.000  0.000
  0.000  0.000  0.338  0.662  0.000
  0.000  0.000  0.662  0.338  0.000
  1.000  0.000  0.000  0.000  0.000
  0.000  0.000  0.000  0.000  1.000
    occupations:
  0.136 -0.000 -0.000  0.000  0.000
 -0.000  0.143 -0.000  0.000  0.000
 -0.000 -0.000  0.143  0.000  0.000
  0.000  0.000  0.000  0.064 -0.000
  0.000  0.000  0.000 -0.000  0.268
atomic mag. moment =     4.219635
atom    3   Tr[ns(na)] (up, down, total) =   4.97238  0.75111  5.72350
   spin  1
    eigenvalues:
  0.985  0.994  0.994  0.998  1.002
    eigenvectors:
  0.000  0.000  0.000  1.000  0.000
  0.000  0.393  0.607  0.000  0.000
  0.000  0.607  0.393  0.000  0.000
  0.000  0.000  0.000  0.000  1.000
  1.000  0.000  0.000  0.000  0.000
    occupations:
  0.998 -0.000 -0.000  0.000  0.000
 -0.000  0.994 -0.000  0.000  0.000
 -0.000 -0.000  0.994  0.000  0.000
  0.000  0.000  0.000  1.002 -0.000
  0.000  0.000  0.000 -0.000  0.985
   spin  2
    eigenvalues:
  0.064  0.138  0.141  0.141  0.267
    eigenvectors:
  0.000  1.000  0.000  0.000  0.000
  0.000  0.000  0.297  0.703  0.000
  0.000  0.000  0.703  0.297  0.000
  1.000  0.000  0.000  0.000  0.000
  0.000  0.000  0.000  0.000  1.000
    occupations:
  0.138 -0.000 -0.000  0.000  0.000
 -0.000  0.141 -0.000  0.000  0.000
 -0.000 -0.000  0.141  0.000  0.000
  0.000  0.000  0.000  0.064 -0.000
  0.000  0.000  0.000 -0.000  0.267
atomic mag. moment =     4.221270
atom    4   Tr[ns(na)] (up, down, total) =   4.97205  0.75242  5.72447
   spin  1
    eigenvalues:
  0.985  0.994  0.994  0.997  1.002
    eigenvectors:
  0.000  0.000  0.000  1.000  0.000
  0.000  0.292  0.708  0.000  0.000
  0.000  0.708  0.292  0.000  0.000
  0.000  0.000  0.000  0.000  1.000
  1.000  0.000  0.000  0.000  0.000
    occupations:
  0.997 -0.000 -0.000  0.000  0.000
 -0.000  0.994 -0.000  0.000  0.000
 -0.000 -0.000  0.994  0.000  0.000
  0.000  0.000  0.000  1.002 -0.000
  0.000  0.000  0.000 -0.000  0.985
   spin  2
    eigenvalues:
  0.064  0.136  0.143  0.143  0.268
    eigenvectors:
  0.000  1.000  0.000  0.000  0.000
  0.000  0.000  0.376  0.624  0.000
  0.000  0.000  0.624  0.376  0.000
  1.000  0.000  0.000  0.000  0.000
  0.000  0.000  0.000  0.000  1.000
    occupations:
  0.136 -0.000 -0.000  0.000  0.000
 -0.000  0.143 -0.000  0.000  0.000
 -0.000 -0.000  0.143  0.000  0.000
  0.000  0.000  0.000  0.064 -0.000
  0.000  0.000  0.000 -0.000  0.268
atomic mag. moment =     4.219635
atom    5   Tr[ns(na)] (up, down, total) =   4.97511  0.71968  5.69479
   spin  1
    eigenvalues:
  0.986  0.995  0.995  0.998  1.002
    eigenvectors:
  0.000  0.000  0.000  1.000  0.000
  0.000  0.303  0.697  0.000  0.000
  0.000  0.697  0.303  0.000  0.000
  0.000  0.000  0.000  0.000  1.000
  1.000  0.000  0.000  0.000  0.000
    occupations:
  0.998 -0.000 -0.000  0.000  0.000
 -0.000  0.995 -0.000  0.000  0.000
 -0.000 -0.000  0.995  0.000  0.000
  0.000  0.000  0.000  1.002 -0.000
  0.000  0.000  0.000 -0.000  0.986
   spin  2
    eigenvalues:
  0.066  0.124  0.140  0.140  0.248
    eigenvectors:
  0.000  1.000  0.000  0.000  0.000
  0.000  0.000  0.367  0.633  0.000
  0.000  0.000  0.633  0.367  0.000
  1.000  0.000  0.000  0.000  0.000
  0.000  0.000  0.000  0.000  1.000
    occupations:
  0.124 -0.000 -0.000  0.000  0.000
 -0.000  0.140 -0.000  0.000  0.000
 -0.000 -0.000  0.140  0.000  0.000
  0.000  0.000  0.000  0.066 -0.000
  0.000  0.000  0.000 -0.000  0.248
atomic mag. moment =     4.255424
atom    6   Tr[ns(na)] (up, down, total) =   0.70722  4.97479  5.68201
   spin  1
    eigenvalues:
  0.066  0.115  0.142  0.142  0.243
    eigenvectors:
  0.000  1.000  0.000  0.000  0.000
  0.000  0.000  0.309  0.691  0.000
  0.000  0.000  0.691  0.309  0.000
  1.000  0.000  0.000  0.000  0.000
  0.000  0.000  0.000  0.000  1.000
    occupations:
  0.115 -0.000 -0.000  0.000  0.000
 -0.000  0.142 -0.000  0.000  0.000
 -0.000 -0.000  0.142  0.000  0.000
  0.000  0.000  0.000  0.066 -0.000
  0.000  0.000  0.000 -0.000  0.243
   spin  2
    eigenvalues:
  0.985  0.994  0.994  0.998  1.002
    eigenvectors:
  0.000  0.000  0.000  1.000  0.000
  0.000  0.279  0.721  0.000  0.000
  0.000  0.721  0.279  0.000  0.000
  0.000  0.000  0.000  0.000  1.000
  1.000  0.000  0.000  0.000  0.000
    occupations:
  0.998 -0.000 -0.000  0.000  0.000
 -0.000  0.994 -0.000  0.000  0.000
 -0.000 -0.000  0.994  0.000  0.000
  0.000  0.000  0.000  1.002 -0.000
  0.000  0.000  0.000 -0.000  0.985
atomic mag. moment =    -4.267577
atom    7   Tr[ns(na)] (up, down, total) =   4.97721  0.68835  5.66556
   spin  1
    eigenvalues:
  0.986  0.995  0.995  0.999  1.003
    eigenvectors:
  0.000  0.000  0.000  1.000  0.000
  0.000  0.312  0.688  0.000  0.000
  0.000  0.688  0.312  0.000  0.000
  0.000  0.000  0.000  0.000  1.000
  1.000  0.000  0.000  0.000  0.000
    occupations:
  0.999 -0.000 -0.000  0.000  0.000
 -0.000  0.995 -0.000  0.000  0.000
 -0.000 -0.000  0.995  0.000  0.000
  0.000  0.000  0.000  1.003 -0.000
  0.000  0.000  0.000 -0.000  0.986
   spin  2
    eigenvalues:
  0.067  0.103  0.140  0.140  0.239
    eigenvectors:
  0.000  1.000  0.000  0.000  0.000
  0.000  0.000  0.303  0.697  0.000
  0.000  0.000  0.697  0.303  0.000
  1.000  0.000  0.000  0.000  0.000
  0.000  0.000  0.000  0.000  1.000
    occupations:
  0.103 -0.000 -0.000  0.000  0.000
 -0.000  0.140 -0.000  0.000  0.000
 -0.000 -0.000  0.140  0.000  0.000
  0.000  0.000  0.000  0.067 -0.000
  0.000  0.000  0.000 -0.000  0.239
atomic mag. moment =     4.288860
atom    8   Tr[ns(na)] (up, down, total) =   0.70722  4.97479  5.68201
   spin  1
    eigenvalues:
  0.066  0.115  0.142  0.142  0.243
    eigenvectors:
  0.000  1.000  0.000  0.000  0.000
  0.000  0.000  0.333  0.667  0.000
  0.000  0.000  0.667  0.333  0.000
  1.000  0.000  0.000  0.000  0.000
  0.000  0.000  0.000  0.000  1.000
    occupations:
  0.115 -0.000 -0.000  0.000  0.000
 -0.000  0.142 -0.000  0.000  0.000
 -0.000 -0.000  0.142  0.000  0.000
  0.000  0.000  0.000  0.066 -0.000
  0.000  0.000  0.000 -0.000  0.243
   spin  2
    eigenvalues:
  0.985  0.994  0.994  0.998  1.002
    eigenvectors:
  0.000  0.000  0.000  1.000  0.000
  0.000  0.322  0.678  0.000  0.000
  0.000  0.678  0.322  0.000  0.000
  0.000  0.000  0.000  0.000  1.000
  1.000  0.000  0.000  0.000  0.000
    occupations:
  0.998 -0.000 -0.000  0.000  0.000
 -0.000  0.994 -0.000  0.000  0.000
 -0.000 -0.000  0.994  0.000  0.000
  0.000  0.000  0.000  1.002 -0.000
  0.000  0.000  0.000 -0.000  0.985
atomic mag. moment =    -4.267577
N of occupied +U levels =   45.591599
 --- exit write_ns ---

 ------ SPIN UP ------------

          k = 0.0000 0.0000 0.0000 ( 14071 PWs)   bands (ev):

   -67.1486 -67.0304 -67.0304 -66.9006 -66.9006 -66.8792 -62.4952 -62.4952
   -35.9204 -35.8607 -35.8607 -35.8003 -35.8003 -35.7460 -35.7460 -35.7460
   -35.7460 -35.6817 -35.6817 -35.6587 -35.6131 -35.6131 -35.6131 -35.6131
   -35.5929 -35.5929 -31.3143 -31.3143 -31.3143 -31.3143 -31.3136 -31.3136
     5.5825   5.7245   5.7299   6.1064   6.2096   6.8132   6.8144   7.4000
     7.9875   8.1929   8.2059   8.2506   8.2876   8.3021   8.3360   8.3853
     8.5155   8.5651   8.5715   8.6013   8.7022   8.8171   8.9852   8.9935
     9.0143   9.1449   9.1686   9.2052   9.3299   9.3629   9.4359   9.6990
     9.7196   9.7578   9.7679   9.8401   9.8658   9.8950   9.9108   9.9243
     9.9243   9.9826   9.9826  10.0040  10.0040  10.0182  10.0630  10.1417
    10.1417  10.1528  10.1528  10.2172  10.2759  10.2759  10.3283  10.3283
    10.3324  10.3324  10.3571  10.3611  10.3914  10.3914  10.3973  10.3973
    10.4140  10.4140  10.4694  10.5108  10.5108  10.5154  10.5154  10.6538
    10.6934  10.8001  10.8001  10.8153  10.8642  10.8642  10.9140  10.9765
    11.0259  11.0341  11.1120  11.1884  11.2016  11.2369  11.2369  11.2848
    11.2910  11.3184  11.3184  11.4574  11.5043  11.5156  11.5800  11.6932
    11.6944  11.6944  11.7374  11.7951  11.8390  11.8555  11.9162  11.9162
    11.9456  11.9741  12.0942  12.0942  12.2389  12.2885  12.2885  12.4206
    12.4808  12.5186  12.5186  12.5197  12.5887  12.7257  12.7560  12.8275
    12.8550  13.4935  13.8661  14.7764  14.9538  16.0556  16.6111  16.6111
    16.6442  16.6444  16.6569  16.6569  16.8480  16.8481  17.0194  17.2094
    17.7467  18.9460  18.9907  19.8543  19.8543  20.2013  20.2013  20.2139
    20.2139  20.8517

[...]

          k =-0.5000-0.5000 0.0000 ( 14124 PWs)   bands (ev):

[...]

 ------ SPIN DOWN ----------

[...]

          k = 0.3333-0.5000-0.0478 ( 14140 PWs)   bands (ev):

[...]

          k =-0.5000-0.5000-0.0478 ( 14176 PWs)   bands (ev):

   -67.1144 -67.1144 -62.5074 -62.4223 -62.4223 -62.3286 -62.3286 -62.3057
   -35.8830 -35.8830 -35.8405 -35.8405 -35.8405 -35.8405 -31.3417 -31.3417
   -31.3230 -31.2570 -31.2570 -31.2570 -31.2570 -31.2421 -31.2421 -31.1603
   -31.1603 -31.1603 -31.1603 -31.1584 -31.1584 -31.1388 -31.1388 -31.1336
     7.9913   8.0044   8.0664   8.1539   8.4335   8.4593   8.5133   8.5446
     8.7764   8.8482   8.8659   8.8726   9.0450   9.0450   9.0930   9.0930
     9.1052   9.1579   9.1692   9.1747   9.1793   9.1793   9.1881   9.1881
     9.3738   9.3738   9.3741   9.3741   9.6325   9.6407   9.6407   9.6466
     9.6466   9.6697   9.6697   9.6807   9.6807   9.7546  10.0567  10.0567
    10.1239  10.1239  10.3287  10.3862  10.4415  10.4565  10.5122  10.5154
    10.5248  10.5248  10.6256  10.6256  10.9724  10.9829  10.9943  11.0287
    11.0419  11.0419  11.1175  11.1175  11.2527  11.2527  11.5616  11.5616
    11.7037  11.7038  11.7308  11.7504  11.7504  11.7850  11.7850  11.7912
    11.7912  11.7976  11.8135  11.8402  11.8402  11.8426  11.8426  11.8739
    11.8739  11.8799  11.9118  11.9257  11.9654  12.0047  12.0053  12.0188
    12.0253  12.0838  13.1700  13.1932  13.1978  13.2135  13.2275  13.2359
    13.7158  13.7158  13.8598  13.8598  14.0588  14.0588  14.2145  14.2145
    14.4437  14.4437  14.5974  14.5974  15.5891  15.5891  15.7030  15.7030
    16.3269  16.3788  16.5533  16.6077  16.6132  16.7437  16.8034  16.8912
    16.8912  16.9116  17.0608  17.0608  17.4750  17.4839  17.5773  17.5892
    17.5892  17.6388  17.6418  17.6418  17.7003  17.7493  17.8280  17.8280
    17.9432  17.9432  17.9620  18.0526  18.1262  18.2010  18.4380  18.4858
    18.5741  18.5741

     the Fermi energy is    15.0280 ev

!    total energy              =  -14694.01519497 Ry
     Harris-Foulkes estimate   =  -14694.01519180 Ry
     estimated scf accuracy    <       0.00000090 Ry

     total all-electron energy =   -626921.610917 Ry

     The total energy is the sum of the following terms:

     one-electron contribution =    -729.72854319 Ry
     hartree contribution      =     661.40749291 Ry
     xc contribution           =    -737.67219481 Ry
     ewald contribution        =   -2186.64874840 Ry
     Hubbard energy            =       0.44210554 Ry
     one-center paw contrib.   =  -11701.81530702 Ry

     total magnetization       =    17.33 Bohr mag/cell
     absolute magnetization    =    37.30 Bohr mag/cell

     convergence has been achieved in  25 iterations

     Writing output data file mnau2.save/

     General routines

     Parallel routines

     Hubbard U routines

   This run was terminated on:  16:29: 0  29Mar2019

   JOB DONE.