     Program PWSCF v.6.3MaX starts on 29Mar2019 at 16:29: 5

     R & G space division:  proc/nbgrp/npool/nimage =      32
     Waiting for input...
     Reading input from standard input

     Current dimensions of program PWSCF are:
     Max number of different atomic species (ntypx) = 10
     Max number of k-points (npk) =  40000
     Max angular momentum in pseudopotentials (lmaxx) =  3
     Message from routine read_upf::
     Pseudo file ./pseudo/Mn.pbe-spn-kjpaw_psl.0.3.1.UPF has been successfully fixed on the fly.
To avoid this message in the future you can permanently fix
 your pseudo files following instructions given in:
               file Mn.pbe-spn-kjpaw_psl.0.3.1.UPF: wavefunction(s)  3P 3D renormalized
     Message from routine read_upf::
     Pseudo file ./pseudo/Mn.pbe-spn-kjpaw_psl.0.3.1.UPF has been successfully fixed on the fly.
To avoid this message in the future you can permanently fix
 your pseudo files following instructions given in:
               file Mn.pbe-spn-kjpaw_psl.0.3.1.UPF: wavefunction(s)  3P 3D renormalized
     Message from routine read_upf::
     Pseudo file ./pseudo/Au.pbe-dn-kjpaw_psl.0.1.UPF has been successfully fixed on the fly.
To avoid this message in the future you can permanently fix
 your pseudo files following instructions given in:
               file Au.pbe-dn-kjpaw_psl.0.1.UPF: wavefunction(s)  6S 6P 5D renormalized

     bravais-lattice index     =            0
     lattice parameter (alat)  =       6.4153  a.u.
     unit-cell volume          =    2762.7331 (a.u.)^3
     number of atoms/cell      =           24
     number of atomic types    =            3
     number of electrons       =       296.00
     number of Kohn-Sham states=          178
     kinetic-energy cutoff     =      45.0000  Ry
     charge density cutoff     =     400.0000  Ry
     convergence threshold     =      1.0E-06
     mixing beta               =       0.1000
     number of iterations used =            8  plain     mixing
     Exchange-correlation      = SLA PW PBX PBC ( 1  4  3  4 0 0)

     celldm(1)=   6.415315  celldm(2)=   0.000000  celldm(3)=   0.000000
     celldm(4)=   0.000000  celldm(5)=   0.000000  celldm(6)=   0.000000

     crystal axes: (cart. coord. in units of alat)
               a(1) = (   1.000000   0.000000   0.000000 )
               a(2) = (   0.000000   1.000000   0.000000 )
               a(3) = (   0.000000   0.000000  10.463692 )

     reciprocal axes: (cart. coord. in units 2 pi/alat)
               b(1) = (  1.000000  0.000000  0.000000 )
               b(2) = (  0.000000  1.000000  0.000000 )
               b(3) = (  0.000000  0.000000  0.095569 )

     PseudoPot. # 1 for Mn read from file:
     ./pseudo/Mn.pbe-spn-kjpaw_psl.0.3.1.UPF
     MD5 check sum: 7eef95dd2aae66803482eea66ebeebf1
     Pseudo is Projector augmented-wave + core cor, Zval = 15.0
     Generated using "atomic" code by A. Dal Corso v.5.0.99 svn rev. 10869
     Shape of augmentation charge: PSQ
     Using radial grid of 1187 points,  6 beta functions with:
                l(1) =   0
                l(2) =   0
                l(3) =   1
                l(4) =   1
                l(5) =   2
                l(6) =   2
     Q(r) pseudized with 0 coefficients

     PseudoPot. # 2 for Mn read from file:
     ./pseudo/Mn.pbe-spn-kjpaw_psl.0.3.1.UPF
     MD5 check sum: 7eef95dd2aae66803482eea66ebeebf1
     Pseudo is Projector augmented-wave + core cor, Zval = 15.0
     Generated using "atomic" code by A. Dal Corso v.5.0.99 svn rev. 10869
     Shape of augmentation charge: PSQ
     Using radial grid of 1187 points,  6 beta functions with:
                l(1) =   0
                l(2) =   0
                l(3) =   1
                l(4) =   1
                l(5) =   2
                l(6) =   2
     Q(r) pseudized with 0 coefficients

     PseudoPot. # 3 for Au read from file:
     ./pseudo/Au.pbe-dn-kjpaw_psl.0.1.UPF
     MD5 check sum: 5c9b92683623e7ae2ab3f8e525febab6
     Pseudo is Projector augmented-wave + core cor, Zval = 11.0
     Generated using "atomic" code by A. Dal Corso v.5.0.2 svn rev. 9415
     Shape of augmentation charge: PSQ
     Using radial grid of 1279 points,  6 beta functions with:
                l(1) =   0
                l(2) =   0
                l(3) =   1
                l(4) =   1
                l(5) =   2
                l(6) =   2
     Q(r) pseudized with 0 coefficients

     atomic species   valence    mass     pseudopotential
        Mn1           15.00    54.93800     Mn( 1.00)
        Mn2           15.00    54.93800     Mn( 1.00)
        Au            11.00   196.96600     Au( 1.00)

     Starting magnetic structure
     atomic species   magnetization
        Mn1          0.800
        Mn2         -0.800
        Au           0.000

     Full LDA+U calculation (l_max = 2) with parameters (eV):
     U(  1) =   3.1200   J(  1) =   0.7000   B(  1) =   0.0803
     U(  2) =   3.1200   J(  2) =   0.7000   B(  2) =   0.0803

     16 Sym. Ops., with inversion, found ( 8 have fractional translation)

   Cartesian axes

     site n.     atom                  positions (alat units)
         1           Mn1 tau(   1) = (   0.0000000   0.0000000   0.0000000  )
         2           Mn1 tau(   2) = (   0.5000000   0.5000000   1.3079615  )
         3           Mn1 tau(   3) = (   0.0000000   0.0000000   2.6159231  )
         4           Mn1 tau(   4) = (   0.5000000   0.5000000   3.9238846  )
         5           Mn1 tau(   5) = (   0.0000000   0.0000000   5.2318461  )
         6           Mn2 tau(   6) = (   0.5000000   0.5000000   6.5398077  )
         7           Mn2 tau(   7) = (   0.0000000   0.0000000   7.8477692  )
         8           Mn2 tau(   8) = (   0.5000000   0.5000000   9.1557307  )
         9           Au  tau(   9) = (   0.5000000   0.5000000   0.4185477  )
        10           Au  tau(  10) = (   0.0000000   0.0000000   0.8894138  )
        11           Au  tau(  11) = (   0.0000000   0.0000000   1.7265092  )
        12           Au  tau(  12) = (   0.5000000   0.5000000   2.1973754  )
        13           Au  tau(  13) = (   0.5000000   0.5000000   3.0344708  )
        14           Au  tau(  14) = (   0.0000000   0.0000000   3.5053369  )
        15           Au  tau(  15) = (   0.0000000   0.0000000   4.3424323  )
        16           Au  tau(  16) = (   0.5000000   0.5000000   4.8132984  )
        17           Au  tau(  17) = (   0.5000000   0.5000000   5.6503938  )
        18           Au  tau(  18) = (   0.0000000   0.0000000   6.1212600  )
        19           Au  tau(  19) = (   0.0000000   0.0000000   6.9583554  )
        20           Au  tau(  20) = (   0.5000000   0.5000000   7.4292215  )
        21           Au  tau(  21) = (   0.5000000   0.5000000   8.2663169  )
        22           Au  tau(  22) = (   0.0000000   0.0000000   8.7371830  )
        23           Au  tau(  23) = (   0.0000000   0.0000000   9.5742784  )
        24           Au  tau(  24) = (   0.5000000   0.5000000  10.0451446  )

     number of k points=    40 (tetrahedron method)
                       cart. coord. in units 2pi/alat
        k(    1) = (   0.0000000   0.0000000   0.0000000), wk =   0.0046296
        k(    2) = (   0.0000000   0.0000000   0.0159281), wk =   0.0092593
        k(    3) = (   0.0000000   0.0000000   0.0318562), wk =   0.0092593
        k(    4) = (   0.0000000   0.0000000  -0.0477843), wk =   0.0046296
        k(    5) = (   0.0000000   0.1666667   0.0000000), wk =   0.0185185
        k(    6) = (   0.0000000   0.1666667   0.0159281), wk =   0.0370370
        k(    7) = (   0.0000000   0.1666667   0.0318562), wk =   0.0370370
        k(    8) = (   0.0000000   0.1666667  -0.0477843), wk =   0.0185185
        k(    9) = (   0.0000000   0.3333333   0.0000000), wk =   0.0185185
        k(   10) = (   0.0000000   0.3333333   0.0159281), wk =   0.0370370
        k(   11) = (   0.0000000   0.3333333   0.0318562), wk =   0.0370370
        k(   12) = (   0.0000000   0.3333333  -0.0477843), wk =   0.0185185
        k(   13) = (   0.0000000  -0.5000000   0.0000000), wk =   0.0092593
        k(   14) = (   0.0000000  -0.5000000   0.0159281), wk =   0.0185185
        k(   15) = (   0.0000000  -0.5000000   0.0318562), wk =   0.0185185
        k(   16) = (   0.0000000  -0.5000000  -0.0477843), wk =   0.0092593
        k(   17) = (   0.1666667   0.1666667   0.0000000), wk =   0.0185185
        k(   18) = (   0.1666667   0.1666667   0.0159281), wk =   0.0370370
        k(   19) = (   0.1666667   0.1666667   0.0318562), wk =   0.0370370
        k(   20) = (   0.1666667   0.1666667  -0.0477843), wk =   0.0185185
        k(   21) = (   0.1666667   0.3333333   0.0000000), wk =   0.0370370
        k(   22) = (   0.1666667   0.3333333   0.0159281), wk =   0.0740741
        k(   23) = (   0.1666667   0.3333333   0.0318562), wk =   0.0740741
        k(   24) = (   0.1666667   0.3333333  -0.0477843), wk =   0.0370370
        k(   25) = (   0.1666667  -0.5000000   0.0000000), wk =   0.0185185
        k(   26) = (   0.1666667  -0.5000000   0.0159281), wk =   0.0370370
        k(   27) = (   0.1666667  -0.5000000   0.0318562), wk =   0.0370370
        k(   28) = (   0.1666667  -0.5000000  -0.0477843), wk =   0.0185185
        k(   29) = (   0.3333333   0.3333333   0.0000000), wk =   0.0185185
        k(   30) = (   0.3333333   0.3333333   0.0159281), wk =   0.0370370
        k(   31) = (   0.3333333   0.3333333   0.0318562), wk =   0.0370370
        k(   32) = (   0.3333333   0.3333333  -0.0477843), wk =   0.0185185
        k(   33) = (   0.3333333  -0.5000000   0.0000000), wk =   0.0185185
        k(   34) = (   0.3333333  -0.5000000   0.0159281), wk =   0.0370370
        k(   35) = (   0.3333333  -0.5000000   0.0318562), wk =   0.0370370
        k(   36) = (   0.3333333  -0.5000000  -0.0477843), wk =   0.0185185
        k(   37) = (  -0.5000000  -0.5000000   0.0000000), wk =   0.0046296
        k(   38) = (  -0.5000000  -0.5000000   0.0159281), wk =   0.0092593
        k(   39) = (  -0.5000000  -0.5000000   0.0318562), wk =   0.0092593
        k(   40) = (  -0.5000000  -0.5000000  -0.0477843), wk =   0.0046296

     Check: negative/imaginary core charge=   -0.000006    0.000000

     Initial potential from superposition of free atoms

     starting charge  295.99426, renormalised to  296.00000
     Number of +U iterations with fixed ns =  0
     Starting occupations:
 --- enter write_ns ---
 LDA+U parameters:
U(  1) =   3.1200   J(  1) =   0.7000   B(  1) =   0.0803
U(  2) =   3.1200   J(  2) =   0.7000   B(  2) =   0.0803
atom    1   Tr[ns(na)] (up, down, total) =   5.00000  0.00000  5.00000
   spin  1
    eigenvalues:
  1.000  1.000  1.000  1.000  1.000
    eigenvectors:
  1.000  0.000  0.000  0.000  0.000
  0.000  1.000  0.000  0.000  0.000
  0.000  0.000  1.000  0.000  0.000
  0.000  0.000  0.000  1.000  0.000
  0.000  0.000  0.000  0.000  1.000
    occupations:
  1.000  0.000  0.000  0.000  0.000
  0.000  1.000  0.000  0.000  0.000
  0.000  0.000  1.000  0.000  0.000
  0.000  0.000  0.000  1.000  0.000
  0.000  0.000  0.000  0.000  1.000
   spin  2
    eigenvalues:
  0.000  0.000  0.000  0.000  0.000
    eigenvectors:
[...]
   spin  1
    eigenvalues:
  0.052  0.070  0.079  0.079  0.116
    eigenvectors:
  0.000  1.000  0.000  0.000  0.000
  0.000  0.000  0.304  0.696  0.000
  0.000  0.000  0.696  0.304  0.000
  1.000  0.000  0.000  0.000  0.000
  0.000  0.000  0.000  0.000  1.000
    occupations:
  0.070 -0.000 -0.000  0.000  0.000
 -0.000  0.079 -0.000  0.000  0.000
 -0.000 -0.000  0.079  0.000  0.000
  0.000  0.000  0.000  0.052 -0.000
  0.000  0.000  0.000 -0.000  0.116
   spin  2
    eigenvalues:
  1.003  1.003  1.003  1.004  1.004
    eigenvectors:
  0.000  0.000  0.000  1.000  0.000
  0.000  0.281  0.719  0.000  0.000
  0.000  0.719  0.281  0.000  0.000
  0.000  0.000  0.000  0.000  1.000
  1.000  0.000  0.000  0.000  0.000
    occupations:
  1.004 -0.000 -0.000  0.000  0.000
 -0.000  1.003 -0.000  0.000  0.000
 -0.000 -0.000  1.003  0.000  0.000
  0.000  0.000  0.000  1.004 -0.000
  0.000  0.000  0.000 -0.000  1.003
atomic mag. moment =    -4.621669
N of occupied +U levels =   43.282309
 --- exit write_ns ---

     total energy              =  -14687.29803887 Ry
     Harris-Foulkes estimate   =  -14685.83649103 Ry
     estimated scf accuracy    <      11.48751462 Ry

     total magnetization       =    10.20 Bohr mag/cell
     absolute magnetization    =    41.74 Bohr mag/cell

     iteration #  2     ecut=    45.00 Ry     beta= 0.10
     Davidson diagonalization with overlap
     ethr =  3.88E-03,  avg # of iterations =  1.0

[...]

     total energy              =  -14694.02274565 Ry
     Harris-Foulkes estimate   =  -14694.02274479 Ry
     estimated scf accuracy    <       0.00000137 Ry

[...]

     iteration # 25     ecut=    45.00 Ry     beta= 0.10
     Davidson diagonalization with overlap
     ethr =  4.62E-10,  avg # of iterations =  2.5

     Magnetic moment per site:
     atom:    1    charge:   13.5495    magn:    4.2396    constr:    0.0000
     atom:    2    charge:   13.5536    magn:    4.2119    constr:    0.0000
     atom:    3    charge:   13.5545    magn:    4.2138    constr:    0.0000
     atom:    4    charge:   13.5536    magn:    4.2119    constr:    0.0000
     atom:    5    charge:   13.5495    magn:    4.2396    constr:    0.0000
     atom:    6    charge:   13.5493    magn:   -4.2486    constr:    0.0000
     atom:    7    charge:   13.5509    magn:   -4.2246    constr:    0.0000
     atom:    8    charge:   13.5493    magn:   -4.2486    constr:    0.0000
     atom:    9    charge:    9.1371    magn:    0.0287    constr:    0.0000
     atom:   10    charge:    9.1369    magn:    0.0289    constr:    0.0000
     atom:   11    charge:    9.1367    magn:    0.0306    constr:    0.0000
     atom:   12    charge:    9.1348    magn:    0.0249    constr:    0.0000
     atom:   13    charge:    9.1348    magn:    0.0249    constr:    0.0000
     atom:   14    charge:    9.1367    magn:    0.0306    constr:    0.0000
     atom:   15    charge:    9.1369    magn:    0.0289    constr:    0.0000
     atom:   16    charge:    9.1371    magn:    0.0287    constr:    0.0000
     atom:   17    charge:    9.1385    magn:    0.0364    constr:    0.0000
     atom:   18    charge:    9.1385    magn:   -0.0399    constr:    0.0000
     atom:   19    charge:    9.1371    magn:   -0.0311    constr:    0.0000
     atom:   20    charge:    9.1370    magn:   -0.0365    constr:    0.0000
     atom:   21    charge:    9.1370    magn:   -0.0365    constr:    0.0000
     atom:   22    charge:    9.1371    magn:   -0.0311    constr:    0.0000
     atom:   23    charge:    9.1385    magn:   -0.0399    constr:    0.0000
     atom:   24    charge:    9.1385    magn:    0.0364    constr:    0.0000

     End of self-consistent calculation
 --- enter write_ns ---
 LDA+U parameters:
U(  1) =   3.1200   J(  1) =   0.7000   B(  1) =   0.0803
U(  2) =   3.1200   J(  2) =   0.7000   B(  2) =   0.0803
atom    1   Tr[ns(na)] (up, down, total) =   4.97305  0.73228  5.70532
   spin  1
    eigenvalues:
  0.985  0.994  0.994  0.998  1.002
    eigenvectors:
  0.000  0.000  0.000  1.000  0.000
  0.000  0.339  0.661  0.000  0.000
  0.000  0.661  0.339  0.000  0.000
  0.000  0.000  0.000  0.000  1.000
  1.000  0.000  0.000  0.000  0.000
    occupations:
  0.998 -0.000 -0.000  0.000  0.000
 -0.000  0.994 -0.000  0.000  0.000
 -0.000 -0.000  0.994  0.000  0.000
  0.000  0.000  0.000  1.002 -0.000
  0.000  0.000  0.000 -0.000  0.985
   spin  2
    eigenvalues:
  0.065  0.130  0.141  0.141  0.256
    eigenvectors:
  0.000  1.000  0.000  0.000  0.000
  0.000  0.000  0.280  0.720  0.000
  0.000  0.000  0.720  0.280  0.000
  1.000  0.000  0.000  0.000  0.000
  0.000  0.000  0.000  0.000  1.000
    occupations:
  0.130 -0.000 -0.000  0.000  0.000
 -0.000  0.141 -0.000  0.000  0.000
 -0.000 -0.000  0.141  0.000  0.000
  0.000  0.000  0.000  0.065 -0.000
  0.000  0.000  0.000 -0.000  0.256
atomic mag. moment =     4.240770
atom    2   Tr[ns(na)] (up, down, total) =   4.97184  0.75507  5.72691
   spin  1
    eigenvalues:
  0.985  0.994  0.994  0.997  1.002
    eigenvectors:
  0.000  0.000  0.000  1.000  0.000
  0.000  0.326  0.674  0.000  0.000
  0.000  0.674  0.326  0.000  0.000
  0.000  0.000  0.000  0.000  1.000
  1.000  0.000  0.000  0.000  0.000
    occupations:
  0.997 -0.000 -0.000  0.000  0.000
 -0.000  0.994 -0.000  0.000  0.000
 -0.000 -0.000  0.994  0.000  0.000
  0.000  0.000  0.000  1.002 -0.000
  0.000  0.000  0.000 -0.000  0.985
   spin  2
    eigenvalues:
  0.064  0.139  0.143  0.143  0.267
    eigenvectors:
  0.000  1.000  0.000  0.000  0.000
  0.000  0.000  0.300  0.700  0.000
  0.000  0.000  0.700  0.300  0.000
  1.000  0.000  0.000  0.000  0.000
  0.000  0.000  0.000  0.000  1.000
    occupations:
  0.139 -0.000 -0.000  0.000  0.000
 -0.000  0.143 -0.000  0.000  0.000
 -0.000 -0.000  0.143  0.000  0.000
  0.000  0.000  0.000  0.064 -0.000
  0.000  0.000  0.000 -0.000  0.267
atomic mag. moment =     4.216767
atom    3   Tr[ns(na)] (up, down, total) =   4.97205  0.75414  5.72619
   spin  1
    eigenvalues:
  0.985  0.993  0.993  0.998  1.002
    eigenvectors:
  0.000  0.000  0.000  1.000  0.000
  0.000  0.298  0.702  0.000  0.000
  0.000  0.702  0.298  0.000  0.000
  0.000  0.000  0.000  0.000  1.000
  1.000  0.000  0.000  0.000  0.000
    occupations:
  0.998 -0.000 -0.000  0.000  0.000
 -0.000  0.993 -0.000  0.000  0.000
 -0.000 -0.000  0.993  0.000  0.000
  0.000  0.000  0.000  1.002 -0.000
  0.000  0.000  0.000 -0.000  0.985
   spin  2
    eigenvalues:
  0.064  0.140  0.140  0.140  0.270
    eigenvectors:
  0.000  1.000  0.000  0.000  0.000
  0.000  0.000  0.376  0.624  0.000
  0.000  0.000  0.624  0.376  0.000
  1.000  0.000  0.000  0.000  0.000
  0.000  0.000  0.000  0.000  1.000
    occupations:
  0.140 -0.000 -0.000  0.000  0.000
 -0.000  0.140 -0.000  0.000  0.000
 -0.000 -0.000  0.140  0.000  0.000
  0.000  0.000  0.000  0.064 -0.000
  0.000  0.000  0.000 -0.000  0.270
atomic mag. moment =     4.217911
atom    4   Tr[ns(na)] (up, down, total) =   4.97184  0.75507  5.72691
   spin  1
    eigenvalues:
  0.985  0.994  0.994  0.997  1.002
    eigenvectors:
  0.000  0.000  0.000  1.000  0.000
  0.000  0.315  0.685  0.000  0.000
  0.000  0.685  0.315  0.000  0.000
  0.000  0.000  0.000  0.000  1.000
  1.000  0.000  0.000  0.000  0.000
    occupations:
  0.997 -0.000 -0.000  0.000  0.000
 -0.000  0.994 -0.000  0.000  0.000
 -0.000 -0.000  0.994  0.000  0.000
  0.000  0.000  0.000  1.002 -0.000
  0.000  0.000  0.000 -0.000  0.985
   spin  2
    eigenvalues:
  0.064  0.139  0.143  0.143  0.267
    eigenvectors:
  0.000  1.000  0.000  0.000  0.000
  0.000  0.000  0.348  0.652  0.000
  0.000  0.000  0.652  0.348  0.000
  1.000  0.000  0.000  0.000  0.000
  0.000  0.000  0.000  0.000  1.000
    occupations:
  0.139 -0.000 -0.000  0.000  0.000
 -0.000  0.143 -0.000  0.000  0.000
 -0.000 -0.000  0.143  0.000  0.000
  0.000  0.000  0.000  0.064 -0.000
  0.000  0.000  0.000 -0.000  0.267
atomic mag. moment =     4.216767
atom    5   Tr[ns(na)] (up, down, total) =   4.97305  0.73228  5.70532
   spin  1
    eigenvalues:
  0.985  0.994  0.994  0.998  1.002
    eigenvectors:
  0.000  0.000  0.000  1.000  0.000
  0.000  0.305  0.695  0.000  0.000
  0.000  0.695  0.305  0.000  0.000
  0.000  0.000  0.000  0.000  1.000
  1.000  0.000  0.000  0.000  0.000
    occupations:
  0.998 -0.000 -0.000  0.000  0.000
 -0.000  0.994 -0.000  0.000  0.000
 -0.000 -0.000  0.994  0.000  0.000
  0.000  0.000  0.000  1.002 -0.000
  0.000  0.000  0.000 -0.000  0.985
   spin  2
    eigenvalues:
  0.065  0.130  0.141  0.141  0.256
    eigenvectors:
  0.000  1.000  0.000  0.000  0.000
  0.000  0.000  0.349  0.651  0.000
  0.000  0.000  0.651  0.349  0.000
  1.000  0.000  0.000  0.000  0.000
  0.000  0.000  0.000  0.000  1.000
    occupations:
  0.130 -0.000 -0.000  0.000  0.000
 -0.000  0.141 -0.000  0.000  0.000
 -0.000 -0.000  0.141  0.000  0.000
  0.000  0.000  0.000  0.065 -0.000
  0.000  0.000  0.000 -0.000  0.256
atomic mag. moment =     4.240770
atom    6   Tr[ns(na)] (up, down, total) =   0.72692  4.97394  5.70086
   spin  1
    eigenvalues:
  0.065  0.125  0.141  0.141  0.256
    eigenvectors:
  0.000  1.000  0.000  0.000  0.000
  0.000  0.000  0.263  0.737  0.000
  0.000  0.000  0.737  0.263  0.000
  1.000  0.000  0.000  0.000  0.000
  0.000  0.000  0.000  0.000  1.000
    occupations:
  0.125 -0.000 -0.000  0.000  0.000
 -0.000  0.141 -0.000  0.000  0.000
 -0.000 -0.000  0.141  0.000  0.000
  0.000  0.000  0.000  0.065 -0.000
  0.000  0.000  0.000 -0.000  0.256
   spin  2
    eigenvalues:
  0.985  0.994  0.994  0.999  1.002
    eigenvectors:
  0.000  0.000  0.000  1.000  0.000
  0.000  0.358  0.642  0.000  0.000
  0.000  0.642  0.358  0.000  0.000
  0.000  0.000  0.000  0.000  1.000
  1.000  0.000  0.000  0.000  0.000
    occupations:
  0.999 -0.000 -0.000  0.000  0.000
 -0.000  0.994 -0.000  0.000  0.000
 -0.000 -0.000  0.994  0.000  0.000
  0.000  0.000  0.000  1.002 -0.000
  0.000  0.000  0.000 -0.000  0.985
atomic mag. moment =    -4.247022
atom    7   Tr[ns(na)] (up, down, total) =   0.74572  4.97309  5.71882
   spin  1
    eigenvalues:
  0.065  0.135  0.140  0.140  0.266
    eigenvectors:
  0.000  1.000  0.000  0.000  0.000
  0.000  0.000  0.340  0.660  0.000
  0.000  0.000  0.660  0.340  0.000
  1.000  0.000  0.000  0.000  0.000
  0.000  0.000  0.000  0.000  1.000
    occupations:
  0.135 -0.000 -0.000  0.000  0.000
 -0.000  0.140 -0.000  0.000  0.000
 -0.000 -0.000  0.140  0.000  0.000
  0.000  0.000  0.000  0.065 -0.000
  0.000  0.000  0.000 -0.000  0.266
   spin  2
    eigenvalues:
  0.986  0.994  0.994  0.997  1.002
    eigenvectors:
  0.000  0.000  0.000  1.000  0.000
  0.000  0.341  0.659  0.000  0.000
  0.000  0.659  0.341  0.000  0.000
  0.000  0.000  0.000  0.000  1.000
  1.000  0.000  0.000  0.000  0.000
    occupations:
  0.997 -0.000 -0.000  0.000  0.000
 -0.000  0.994 -0.000  0.000  0.000
 -0.000 -0.000  0.994  0.000  0.000
  0.000  0.000  0.000  1.002 -0.000
  0.000  0.000  0.000 -0.000  0.986
atomic mag. moment =    -4.227371
atom    8   Tr[ns(na)] (up, down, total) =   0.72692  4.97394  5.70086
   spin  1
    eigenvalues:
  0.065  0.125  0.141  0.141  0.256
    eigenvectors:
  0.000  1.000  0.000  0.000  0.000
  0.000  0.000  0.357  0.643  0.000
  0.000  0.000  0.643  0.357  0.000
  1.000  0.000  0.000  0.000  0.000
  0.000  0.000  0.000  0.000  1.000
    occupations:
  0.125 -0.000 -0.000  0.000  0.000
 -0.000  0.141 -0.000  0.000  0.000
 -0.000 -0.000  0.141  0.000  0.000
  0.000  0.000  0.000  0.065 -0.000
  0.000  0.000  0.000 -0.000  0.256
   spin  2
    eigenvalues:
  0.985  0.994  0.994  0.999  1.002
    eigenvectors:
  0.000  0.000  0.000  1.000  0.000
  0.000  0.252  0.748  0.000  0.000
  0.000  0.748  0.252  0.000  0.000
  0.000  0.000  0.000  0.000  1.000
  1.000  0.000  0.000  0.000  0.000
    occupations:
  0.999 -0.000 -0.000  0.000  0.000
 -0.000  0.994 -0.000  0.000  0.000
 -0.000 -0.000  0.994  0.000  0.000
  0.000  0.000  0.000  1.002 -0.000
  0.000  0.000  0.000 -0.000  0.985
atomic mag. moment =    -4.247022
N of occupied +U levels =   45.711193
 --- exit write_ns ---

 ------ SPIN UP ------------

          k = 0.0000 0.0000 0.0000 ( 14071 PWs)   bands (ev):

   -67.0277 -67.0277 -66.9185 -66.9185 -66.8923 -62.4289 -62.4289 -62.3773
   -35.8004 -35.8004 -35.7424 -35.7424 -35.7424 -35.7424 -35.6981 -35.6981
   -35.6738 -35.6319 -35.6319 -35.6319 -35.6319 -35.6054 -35.6054 -31.2515
   -31.2515 -31.2482 -31.2482 -31.2482 -31.2482 -31.2082 -31.1935 -31.1935
     5.5865   5.7096   5.8062   6.1644   6.2041   6.8200   6.8385   7.3958
     8.0313   8.1713   8.1913   8.2300   8.2860   8.3634   8.4452   8.5521
     8.5680   8.6228   8.6897   8.7862   8.9130   8.9431   8.9931   9.0136
     9.0286   9.1560   9.2111   9.3142   9.3615   9.3918   9.4845   9.6824
     9.7011   9.7416   9.8494   9.9193   9.9317   9.9317   9.9696   9.9696
    10.0005  10.0020  10.0020  10.0058  10.1213  10.1442  10.1442  10.1456
    10.1456  10.1913  10.3032  10.3162  10.3162  10.3209  10.3209  10.3395
    10.3805  10.3805  10.3818  10.3861  10.3861  10.3969  10.3969  10.4610
    10.4989  10.4989  10.4994  10.4994  10.5716  10.6471  10.7273  10.7773
    10.7773  10.8360  10.8637  10.8637  10.9000  10.9660  11.0079  11.0975
    11.1664  11.2559  11.2559  11.2698  11.2746  11.2746  11.2783  11.4409
    11.4871  11.5027  11.6575  11.6575  11.6726  11.6763  11.6834  11.6834
    11.7778  11.7832  11.8184  11.8797  11.9245  11.9665  11.9925  11.9925
    12.2269  12.2695  12.2695  12.4069  12.4965  12.4965  12.5195  12.5733
    12.7068  12.7842  12.7845  12.8075  13.4884  13.5698  14.4289  14.9490
    15.9767  16.5294  16.5294  16.6742  16.6742  16.6844  16.7057  16.7732
    16.8350  16.8613  16.9076  16.9272  16.9272  17.0327  17.2063  17.2591
    17.8498  18.9565  19.2440  19.8685  19.8685  20.2008  20.2008  20.3242
    20.3242  21.0118

[...]

          k =-0.5000-0.5000 0.0000 ( 14124 PWs)   bands (ev):

[...]

 ------ SPIN DOWN ----------

[...]

          k = 0.3333-0.5000-0.0478 ( 14140 PWs)   bands (ev):

[...]

          k =-0.5000-0.5000-0.0478 ( 14176 PWs)   bands (ev):

   -67.0268 -67.0268 -66.9564 -62.4349 -62.4349 -62.3494 -62.3494 -62.3220
   -35.8023 -35.8023 -35.7518 -35.7518 -35.7518 -35.7518 -35.7392 -35.6788
   -35.6788 -31.2685 -31.2685 -31.2685 -31.2685 -31.2571 -31.2571 -31.1812
   -31.1812 -31.1812 -31.1812 -31.1794 -31.1794 -31.1551 -31.1551 -31.1506
     7.8655   7.8677   8.0820   8.1601   8.3942   8.4114   8.4386   8.4904
     8.7214   8.7717   8.7745   8.8440   9.0489   9.0489   9.0768   9.0768
     9.1079   9.1323   9.1341   9.1392   9.1622   9.1622   9.1726   9.1726
     9.3569   9.3569   9.3610   9.3610   9.6146   9.6277   9.6277   9.6466
     9.6466   9.6596   9.6596   9.6856   9.6989   9.6989   9.7684   9.8219
     9.8219  10.0405  10.0405  10.1645  10.1645  10.3641  10.4004  10.4178
    10.4878  10.4915  10.6060  10.6060  10.6434  10.6434  10.8981  10.9093
    11.0167  11.0392  11.0972  11.0972  11.1957  11.1958  11.2341  11.2341
    11.2427  11.2609  11.2668  11.5503  11.5503  11.7036  11.7040  11.7254
    11.7254  11.7449  11.7670  11.7671  11.7725  11.7956  11.7966  11.8141
    11.8142  11.8249  11.8500  11.8501  11.8548  11.9307  11.9581  11.9806
    11.9817  11.9931  12.0061  12.0395  12.0992  12.2385  12.2385  13.1604
    13.1625  13.1903  13.2042  13.2088  13.6831  13.6831  13.9040  13.9040
    14.1918  14.1918  14.3437  14.3437  14.5776  14.5776  14.6202  14.6202
    15.6413  15.6413  16.3944  16.3952  16.5204  16.5793  16.5993  16.6909
    16.6909  16.7028  16.7145  16.7866  16.8712  16.8712  17.3224  17.3224
    17.4635  17.4939  17.5285  17.5563  17.5563  17.5735  17.6896  17.8286
    17.8286  17.9006  17.9199  17.9199  17.9474  18.0312  18.1772  18.4353
    18.4353  18.4597

     the Fermi energy is    15.0035 ev

!    total energy              =  -14694.02274748 Ry
     Harris-Foulkes estimate   =  -14694.02274223 Ry
     estimated scf accuracy    <       0.00000025 Ry

     total all-electron energy =   -626921.618469 Ry

     The total energy is the sum of the following terms:

     one-electron contribution =    -729.92928288 Ry
     hartree contribution      =     661.56426066 Ry
     xc contribution           =    -737.65729126 Ry
     ewald contribution        =   -2186.64874840 Ry
     Hubbard energy            =       0.44985300 Ry
     one-center paw contrib.   =  -11701.80153860 Ry

     total magnetization       =     8.54 Bohr mag/cell
     absolute magnetization    =    37.16 Bohr mag/cell

     convergence has been achieved in  25 iterations

     Writing output data file mnau2.save/

     General routines

     Parallel routines

     Hubbard U routines

   This run was terminated on:  16:55: 9  29Mar2019

   JOB DONE.