     Program PWSCF v.6.3MaX starts on 29Mar2019 at 16:55:10

     R & G space division:  proc/nbgrp/npool/nimage =      32
     Waiting for input...
     Reading input from standard input

     Current dimensions of program PWSCF are:
     Max number of different atomic species (ntypx) = 10
     Max number of k-points (npk) =  40000
     Max angular momentum in pseudopotentials (lmaxx) =  3
     Message from routine read_upf::
     Pseudo file ./pseudo/Mn.pbe-spn-kjpaw_psl.0.3.1.UPF has been successfully fixed on the fly.
To avoid this message in the future you can permanently fix
 your pseudo files following instructions given in:
               file Mn.pbe-spn-kjpaw_psl.0.3.1.UPF: wavefunction(s)  3P 3D renormalized
     Message from routine read_upf::
     Pseudo file ./pseudo/Mn.pbe-spn-kjpaw_psl.0.3.1.UPF has been successfully fixed on the fly.
To avoid this message in the future you can permanently fix
 your pseudo files following instructions given in:
               file Mn.pbe-spn-kjpaw_psl.0.3.1.UPF: wavefunction(s)  3P 3D renormalized
     Message from routine read_upf::
     Pseudo file ./pseudo/Au.pbe-dn-kjpaw_psl.0.1.UPF has been successfully fixed on the fly.
To avoid this message in the future you can permanently fix
 your pseudo files following instructions given in:
               file Au.pbe-dn-kjpaw_psl.0.1.UPF: wavefunction(s)  6S 6P 5D renormalized

     bravais-lattice index     =            0
     lattice parameter (alat)  =       6.4153  a.u.
     unit-cell volume          =    2762.7331 (a.u.)^3
     number of atoms/cell      =           24
     number of atomic types    =            3
     number of electrons       =       296.00
     number of Kohn-Sham states=          178
     kinetic-energy cutoff     =      45.0000  Ry
     charge density cutoff     =     400.0000  Ry
     convergence threshold     =      1.0E-06
     mixing beta               =       0.1000
     number of iterations used =            8  plain     mixing
     Exchange-correlation      = SLA PW PBX PBC ( 1  4  3  4 0 0)

     celldm(1)=   6.415315  celldm(2)=   0.000000  celldm(3)=   0.000000
     celldm(4)=   0.000000  celldm(5)=   0.000000  celldm(6)=   0.000000

     crystal axes: (cart. coord. in units of alat)
               a(1) = (   1.000000   0.000000   0.000000 )
               a(2) = (   0.000000   1.000000   0.000000 )
               a(3) = (   0.000000   0.000000  10.463692 )

     reciprocal axes: (cart. coord. in units 2 pi/alat)
               b(1) = (  1.000000  0.000000  0.000000 )
               b(2) = (  0.000000  1.000000  0.000000 )
               b(3) = (  0.000000  0.000000  0.095569 )

     PseudoPot. # 1 for Mn read from file:
     ./pseudo/Mn.pbe-spn-kjpaw_psl.0.3.1.UPF
     MD5 check sum: 7eef95dd2aae66803482eea66ebeebf1
     Pseudo is Projector augmented-wave + core cor, Zval = 15.0
     Generated using "atomic" code by A. Dal Corso v.5.0.99 svn rev. 10869
     Shape of augmentation charge: PSQ
     Using radial grid of 1187 points,  6 beta functions with:
                l(1) =   0
                l(2) =   0
                l(3) =   1
                l(4) =   1
                l(5) =   2
                l(6) =   2
     Q(r) pseudized with 0 coefficients

     PseudoPot. # 2 for Mn read from file:
     ./pseudo/Mn.pbe-spn-kjpaw_psl.0.3.1.UPF
     MD5 check sum: 7eef95dd2aae66803482eea66ebeebf1
     Pseudo is Projector augmented-wave + core cor, Zval = 15.0
     Generated using "atomic" code by A. Dal Corso v.5.0.99 svn rev. 10869
     Shape of augmentation charge: PSQ
     Using radial grid of 1187 points,  6 beta functions with:
                l(1) =   0
                l(2) =   0
                l(3) =   1
                l(4) =   1
                l(5) =   2
                l(6) =   2
     Q(r) pseudized with 0 coefficients

     PseudoPot. # 3 for Au read from file:
     ./pseudo/Au.pbe-dn-kjpaw_psl.0.1.UPF
     MD5 check sum: 5c9b92683623e7ae2ab3f8e525febab6
     Pseudo is Projector augmented-wave + core cor, Zval = 11.0
     Generated using "atomic" code by A. Dal Corso v.5.0.2 svn rev. 9415
     Shape of augmentation charge: PSQ
     Using radial grid of 1279 points,  6 beta functions with:
                l(1) =   0
                l(2) =   0
                l(3) =   1
                l(4) =   1
                l(5) =   2
                l(6) =   2
     Q(r) pseudized with 0 coefficients

     atomic species   valence    mass     pseudopotential
        Mn1           15.00    54.93800     Mn( 1.00)
        Mn2           15.00    54.93800     Mn( 1.00)
        Au            11.00   196.96600     Au( 1.00)

     Starting magnetic structure
     atomic species   magnetization
        Mn1          0.800
        Mn2         -0.800
        Au           0.000

     Full LDA+U calculation (l_max = 2) with parameters (eV):
     U(  1) =   3.1200   J(  1) =   0.7000   B(  1) =   0.0803
     U(  2) =   3.1200   J(  2) =   0.7000   B(  2) =   0.0803

      8 Sym. Ops. (no inversion) found

   Cartesian axes

     site n.     atom                  positions (alat units)
         1           Mn1 tau(   1) = (   0.0000000   0.0000000   0.0000000  )
         2           Mn1 tau(   2) = (   0.5000000   0.5000000   1.3079615  )
         3           Mn1 tau(   3) = (   0.0000000   0.0000000   2.6159231  )
         4           Mn1 tau(   4) = (   0.5000000   0.5000000   3.9238846  )
         5           Mn2 tau(   5) = (   0.0000000   0.0000000   5.2318461  )
         6           Mn1 tau(   6) = (   0.5000000   0.5000000   6.5398077  )
         7           Mn1 tau(   7) = (   0.0000000   0.0000000   7.8477692  )
         8           Mn2 tau(   8) = (   0.5000000   0.5000000   9.1557307  )
         9           Au  tau(   9) = (   0.5000000   0.5000000   0.4185477  )
        10           Au  tau(  10) = (   0.0000000   0.0000000   0.8894138  )
        11           Au  tau(  11) = (   0.0000000   0.0000000   1.7265092  )
        12           Au  tau(  12) = (   0.5000000   0.5000000   2.1973754  )
        13           Au  tau(  13) = (   0.5000000   0.5000000   3.0344708  )
        14           Au  tau(  14) = (   0.0000000   0.0000000   3.5053369  )
        15           Au  tau(  15) = (   0.0000000   0.0000000   4.3424323  )
        16           Au  tau(  16) = (   0.5000000   0.5000000   4.8132984  )
        17           Au  tau(  17) = (   0.5000000   0.5000000   5.6503938  )
        18           Au  tau(  18) = (   0.0000000   0.0000000   6.1212600  )
        19           Au  tau(  19) = (   0.0000000   0.0000000   6.9583554  )
        20           Au  tau(  20) = (   0.5000000   0.5000000   7.4292215  )
        21           Au  tau(  21) = (   0.5000000   0.5000000   8.2663169  )
        22           Au  tau(  22) = (   0.0000000   0.0000000   8.7371830  )
        23           Au  tau(  23) = (   0.0000000   0.0000000   9.5742784  )
        24           Au  tau(  24) = (   0.5000000   0.5000000  10.0451446  )

     number of k points=    40 (tetrahedron method)
                       cart. coord. in units 2pi/alat
        k(    1) = (   0.0000000   0.0000000   0.0000000), wk =   0.0046296
        k(    2) = (   0.0000000   0.0000000   0.0159281), wk =   0.0092593
        k(    3) = (   0.0000000   0.0000000   0.0318562), wk =   0.0092593
        k(    4) = (   0.0000000   0.0000000  -0.0477843), wk =   0.0046296
        k(    5) = (   0.0000000   0.1666667   0.0000000), wk =   0.0185185
        k(    6) = (   0.0000000   0.1666667   0.0159281), wk =   0.0370370
        k(    7) = (   0.0000000   0.1666667   0.0318562), wk =   0.0370370
        k(    8) = (   0.0000000   0.1666667  -0.0477843), wk =   0.0185185
        k(    9) = (   0.0000000   0.3333333   0.0000000), wk =   0.0185185
        k(   10) = (   0.0000000   0.3333333   0.0159281), wk =   0.0370370
        k(   11) = (   0.0000000   0.3333333   0.0318562), wk =   0.0370370
        k(   12) = (   0.0000000   0.3333333  -0.0477843), wk =   0.0185185
        k(   13) = (   0.0000000  -0.5000000   0.0000000), wk =   0.0092593
        k(   14) = (   0.0000000  -0.5000000   0.0159281), wk =   0.0185185
        k(   15) = (   0.0000000  -0.5000000   0.0318562), wk =   0.0185185
        k(   16) = (   0.0000000  -0.5000000  -0.0477843), wk =   0.0092593
        k(   17) = (   0.1666667   0.1666667   0.0000000), wk =   0.0185185
        k(   18) = (   0.1666667   0.1666667   0.0159281), wk =   0.0370370
        k(   19) = (   0.1666667   0.1666667   0.0318562), wk =   0.0370370
        k(   20) = (   0.1666667   0.1666667  -0.0477843), wk =   0.0185185
        k(   21) = (   0.1666667   0.3333333   0.0000000), wk =   0.0370370
        k(   22) = (   0.1666667   0.3333333   0.0159281), wk =   0.0740741
        k(   23) = (   0.1666667   0.3333333   0.0318562), wk =   0.0740741
        k(   24) = (   0.1666667   0.3333333  -0.0477843), wk =   0.0370370
        k(   25) = (   0.1666667  -0.5000000   0.0000000), wk =   0.0185185
        k(   26) = (   0.1666667  -0.5000000   0.0159281), wk =   0.0370370
        k(   27) = (   0.1666667  -0.5000000   0.0318562), wk =   0.0370370
        k(   28) = (   0.1666667  -0.5000000  -0.0477843), wk =   0.0185185
        k(   29) = (   0.3333333   0.3333333   0.0000000), wk =   0.0185185
        k(   30) = (   0.3333333   0.3333333   0.0159281), wk =   0.0370370
        k(   31) = (   0.3333333   0.3333333   0.0318562), wk =   0.0370370
        k(   32) = (   0.3333333   0.3333333  -0.0477843), wk =   0.0185185
        k(   33) = (   0.3333333  -0.5000000   0.0000000), wk =   0.0185185
        k(   34) = (   0.3333333  -0.5000000   0.0159281), wk =   0.0370370
        k(   35) = (   0.3333333  -0.5000000   0.0318562), wk =   0.0370370
        k(   36) = (   0.3333333  -0.5000000  -0.0477843), wk =   0.0185185
        k(   37) = (  -0.5000000  -0.5000000   0.0000000), wk =   0.0046296
        k(   38) = (  -0.5000000  -0.5000000   0.0159281), wk =   0.0092593
        k(   39) = (  -0.5000000  -0.5000000   0.0318562), wk =   0.0092593
        k(   40) = (  -0.5000000  -0.5000000  -0.0477843), wk =   0.0046296

     Check: negative/imaginary core charge=   -0.000006    0.000000

     Initial potential from superposition of free atoms

     starting charge  295.99426, renormalised to  296.00000
     Number of +U iterations with fixed ns =  0
     Starting occupations:
 --- enter write_ns ---
 LDA+U parameters:
U(  1) =   3.1200   J(  1) =   0.7000   B(  1) =   0.0803
U(  2) =   3.1200   J(  2) =   0.7000   B(  2) =   0.0803
atom    1   Tr[ns(na)] (up, down, total) =   5.00000  0.00000  5.00000
   spin  1
    eigenvalues:
  1.000  1.000  1.000  1.000  1.000
    eigenvectors:
  1.000  0.000  0.000  0.000  0.000
  0.000  1.000  0.000  0.000  0.000
  0.000  0.000  1.000  0.000  0.000
  0.000  0.000  0.000  1.000  0.000
  0.000  0.000  0.000  0.000  1.000
    occupations:
  1.000  0.000  0.000  0.000  0.000
  0.000  1.000  0.000  0.000  0.000
  0.000  0.000  1.000  0.000  0.000
  0.000  0.000  0.000  1.000  0.000
  0.000  0.000  0.000  0.000  1.000
   spin  2
    eigenvalues:
  0.000  0.000  0.000  0.000  0.000
    eigenvectors:
  1.000  0.000  0.000  0.000  0.000
[...]
   spin  1
    eigenvalues:
  0.052  0.070  0.079  0.079  0.120
    eigenvectors:
  0.000  1.000  0.000  0.000  0.000
  0.000  0.000  0.294  0.706  0.000
  0.000  0.000  0.706  0.294  0.000
  1.000  0.000  0.000  0.000  0.000
  0.000  0.000  0.000  0.000  1.000
    occupations:
  0.070 -0.000 -0.000  0.000  0.000
 -0.000  0.079 -0.000  0.000  0.000
 -0.000 -0.000  0.079  0.000  0.000
  0.000  0.000  0.000  0.052 -0.000
  0.000  0.000  0.000 -0.000  0.120
   spin  2
    eigenvalues:
  1.003  1.003  1.003  1.004  1.004
    eigenvectors:
  0.000  0.000  0.000  1.000  0.000
  0.000  0.273  0.727  0.000  0.000
  0.000  0.727  0.273  0.000  0.000
  0.000  0.000  0.000  0.000  1.000
  1.000  0.000  0.000  0.000  0.000
    occupations:
  1.004 -0.000 -0.000  0.000  0.000
 -0.000  1.003 -0.000  0.000  0.000
 -0.000 -0.000  1.003  0.000  0.000
  0.000  0.000  0.000  1.004 -0.000
  0.000  0.000  0.000 -0.000  1.003
atomic mag. moment =    -4.617045
N of occupied +U levels =   43.304168
 --- exit write_ns ---

     total energy              =  -14687.30013124 Ry
     Harris-Foulkes estimate   =  -14685.83944416 Ry
     estimated scf accuracy    <      11.50523541 Ry

     total magnetization       =    20.34 Bohr mag/cell
     absolute magnetization    =    41.71 Bohr mag/cell

     iteration #  2     ecut=    45.00 Ry     beta= 0.10
     Davidson diagonalization with overlap
     ethr =  3.89E-03,  avg # of iterations =  1.0

[...]

     total energy              =  -14694.01689442 Ry
     Harris-Foulkes estimate   =  -14694.01689382 Ry
     estimated scf accuracy    <       0.00000133 Ry

[...]

     iteration # 31     ecut=    45.00 Ry     beta= 0.10
     Davidson diagonalization with overlap
     ethr =  4.49E-10,  avg # of iterations =  2.5

     Magnetic moment per site:
     atom:    1    charge:   13.5472    magn:    4.2548    constr:    0.0000
     atom:    2    charge:   13.5523    magn:    4.2183    constr:    0.0000
     atom:    3    charge:   13.5521    magn:    4.2187    constr:    0.0000
     atom:    4    charge:   13.5474    magn:    4.2554    constr:    0.0000
     atom:    5    charge:   13.5465    magn:   -4.2635    constr:    0.0000
     atom:    6    charge:   13.5462    magn:    4.2559    constr:    0.0000
     atom:    7    charge:   13.5461    magn:    4.2555    constr:    0.0000
     atom:    8    charge:   13.5464    magn:   -4.2643    constr:    0.0000
     atom:    9    charge:    9.1371    magn:    0.0284    constr:    0.0000
     atom:   10    charge:    9.1372    magn:    0.0309    constr:    0.0000
     atom:   11    charge:    9.1359    magn:    0.0317    constr:    0.0000
     atom:   12    charge:    9.1355    magn:    0.0317    constr:    0.0000
     atom:   13    charge:    9.1369    magn:    0.0309    constr:    0.0000
     atom:   14    charge:    9.1375    magn:    0.0286    constr:    0.0000
     atom:   15    charge:    9.1393    magn:    0.0354    constr:    0.0000
     atom:   16    charge:    9.1393    magn:   -0.0389    constr:    0.0000
     atom:   17    charge:    9.1381    magn:   -0.0386    constr:    0.0000
     atom:   18    charge:    9.1397    magn:    0.0393    constr:    0.0000
     atom:   19    charge:    9.1388    magn:    0.0309    constr:    0.0000
     atom:   20    charge:    9.1383    magn:    0.0307    constr:    0.0000
     atom:   21    charge:    9.1392    magn:    0.0390    constr:    0.0000
     atom:   22    charge:    9.1385    magn:   -0.0389    constr:    0.0000
     atom:   23    charge:    9.1398    magn:   -0.0391    constr:    0.0000
     atom:   24    charge:    9.1390    magn:    0.0352    constr:    0.0000

     End of self-consistent calculation
 --- enter write_ns ---
 LDA+U parameters:
U(  1) =   3.1200   J(  1) =   0.7000   B(  1) =   0.0803
U(  2) =   3.1200   J(  2) =   0.7000   B(  2) =   0.0803
atom    1   Tr[ns(na)] (up, down, total) =   4.97517  0.71840  5.69357
   spin  1
    eigenvalues:
  0.986  0.994  0.994  0.999  1.002
    eigenvectors:
  0.000  0.000  0.000  1.000  0.000
  0.000  0.305  0.695  0.000  0.000
  0.000  0.695  0.305  0.000  0.000
  0.000  0.000  0.000  0.000  1.000
  1.000  0.000  0.000  0.000  0.000
    occupations:
  0.999 -0.000 -0.000  0.000  0.000
 -0.000  0.994 -0.000  0.000  0.000
 -0.000 -0.000  0.994  0.000  0.000
  0.000  0.000  0.000  1.002 -0.000
  0.000  0.000  0.000 -0.000  0.986
   spin  2
    eigenvalues:
  0.066  0.122  0.141  0.141  0.248
    eigenvectors:
  0.000  1.000  0.000  0.000  0.000
  0.000  0.000  0.334  0.666  0.000
  0.000  0.000  0.666  0.334  0.000
  1.000  0.000  0.000  0.000  0.000
  0.000  0.000  0.000  0.000  1.000
    occupations:
  0.122 -0.000 -0.000  0.000  0.000
 -0.000  0.141 -0.000  0.000  0.000
 -0.000 -0.000  0.141  0.000  0.000
  0.000  0.000  0.000  0.066 -0.000
  0.000  0.000  0.000 -0.000  0.248
atomic mag. moment =     4.256769
atom    2   Tr[ns(na)] (up, down, total) =   4.97244  0.74906  5.72150
   spin  1
    eigenvalues:
  0.985  0.994  0.994  0.998  1.002
    eigenvectors:
  0.000  0.000  0.000  1.000  0.000
  0.000  0.313  0.687  0.000  0.000
  0.000  0.687  0.313  0.000  0.000
  0.000  0.000  0.000  0.000  1.000
  1.000  0.000  0.000  0.000  0.000
    occupations:
  0.998 -0.000 -0.000  0.000  0.000
 -0.000  0.994 -0.000  0.000  0.000
 -0.000 -0.000  0.994  0.000  0.000
  0.000  0.000  0.000  1.002 -0.000
  0.000  0.000  0.000 -0.000  0.985
   spin  2
    eigenvalues:
  0.064  0.133  0.142  0.142  0.268
    eigenvectors:
  0.000  1.000  0.000  0.000  0.000
  0.000  0.000  0.275  0.725  0.000
  0.000  0.000  0.725  0.275  0.000
  1.000  0.000  0.000  0.000  0.000
  0.000  0.000  0.000  0.000  1.000
    occupations:
  0.133 -0.000 -0.000  0.000  0.000
 -0.000  0.142 -0.000  0.000  0.000
 -0.000 -0.000  0.142  0.000  0.000
  0.000  0.000  0.000  0.064 -0.000
  0.000  0.000  0.000 -0.000  0.268
atomic mag. moment =     4.223382
atom    3   Tr[ns(na)] (up, down, total) =   4.97257  0.74866  5.72123
   spin  1
    eigenvalues:
  0.986  0.994  0.994  0.998  1.002
    eigenvectors:
  0.000  0.000  0.000  1.000  0.000
  0.000  0.291  0.709  0.000  0.000
  0.000  0.709  0.291  0.000  0.000
  0.000  0.000  0.000  0.000  1.000
  1.000  0.000  0.000  0.000  0.000
    occupations:
  0.998 -0.000 -0.000  0.000  0.000
 -0.000  0.994 -0.000  0.000  0.000
 -0.000 -0.000  0.994  0.000  0.000
  0.000  0.000  0.000  1.002 -0.000
  0.000  0.000  0.000 -0.000  0.986
   spin  2
    eigenvalues:
  0.064  0.133  0.143  0.143  0.267
    eigenvectors:
  0.000  1.000  0.000  0.000  0.000
  0.000  0.000  0.317  0.683  0.000
  0.000  0.000  0.683  0.317  0.000
  1.000  0.000  0.000  0.000  0.000
  0.000  0.000  0.000  0.000  1.000
    occupations:
  0.133 -0.000 -0.000  0.000  0.000
 -0.000  0.143 -0.000  0.000  0.000
 -0.000 -0.000  0.143  0.000  0.000
  0.000  0.000  0.000  0.064 -0.000
  0.000  0.000  0.000 -0.000  0.267
atomic mag. moment =     4.223911
atom    4   Tr[ns(na)] (up, down, total) =   4.97520  0.71815  5.69335
   spin  1
    eigenvalues:
  0.986  0.994  0.994  0.999  1.002
    eigenvectors:
  0.000  0.000  0.000  1.000  0.000
  0.000  0.355  0.645  0.000  0.000
  0.000  0.645  0.355  0.000  0.000
  0.000  0.000  0.000  0.000  1.000
  1.000  0.000  0.000  0.000  0.000
    occupations:
  0.999 -0.000 -0.000  0.000  0.000
 -0.000  0.994 -0.000  0.000  0.000
 -0.000 -0.000  0.994  0.000  0.000
  0.000  0.000  0.000  1.002 -0.000
  0.000  0.000  0.000 -0.000  0.986
   spin  2
    eigenvalues:
  0.066  0.122  0.141  0.141  0.249
    eigenvectors:
  0.000  1.000  0.000  0.000  0.000
  0.000  0.000  0.298  0.702  0.000
  0.000  0.000  0.702  0.298  0.000
  1.000  0.000  0.000  0.000  0.000
  0.000  0.000  0.000  0.000  1.000
    occupations:
  0.122 -0.000 -0.000  0.000  0.000
 -0.000  0.141 -0.000  0.000  0.000
 -0.000 -0.000  0.141  0.000  0.000
  0.000  0.000  0.000  0.066 -0.000
  0.000  0.000  0.000 -0.000  0.249
atomic mag. moment =     4.257048
atom    5   Tr[ns(na)] (up, down, total) =   0.71536  4.97352  5.68888
   spin  1
    eigenvalues:
  0.063  0.116  0.142  0.142  0.253
    eigenvectors:
  0.000  1.000  0.000  0.000  0.000
  0.000  0.000  0.363  0.637  0.000
  0.000  0.000  0.637  0.363  0.000
  1.000  0.000  0.000  0.000  0.000
  0.000  0.000  0.000  0.000  1.000
    occupations:
  0.116 -0.000 -0.000  0.000  0.000
 -0.000  0.142 -0.000  0.000  0.000
 -0.000 -0.000  0.142  0.000  0.000
  0.000  0.000  0.000  0.063 -0.000
  0.000  0.000  0.000 -0.000  0.253
   spin  2
    eigenvalues:
  0.985  0.994  0.994  0.998  1.002
    eigenvectors:
  0.000  0.000  0.000  1.000  0.000
  0.000  0.344  0.656  0.000  0.000
  0.000  0.656  0.344  0.000  0.000
  0.000  0.000  0.000  0.000  1.000
  1.000  0.000  0.000  0.000  0.000
    occupations:
  0.998 -0.000 -0.000  0.000  0.000
 -0.000  0.994 -0.000  0.000  0.000
 -0.000 -0.000  0.994  0.000  0.000
  0.000  0.000  0.000  1.002 -0.000
  0.000  0.000  0.000 -0.000  0.985
atomic mag. moment =    -4.258165
atom    6   Tr[ns(na)] (up, down, total) =   4.97534  0.71727  5.69262
   spin  1
    eigenvalues:
  0.986  0.995  0.995  0.998  1.002
    eigenvectors:
  0.000  0.000  0.000  1.000  0.000
  0.000  0.314  0.686  0.000  0.000
  0.000  0.686  0.314  0.000  0.000
  0.000  0.000  0.000  0.000  1.000
  1.000  0.000  0.000  0.000  0.000
    occupations:
  0.998 -0.000 -0.000  0.000  0.000
 -0.000  0.995 -0.000  0.000  0.000
 -0.000 -0.000  0.995  0.000  0.000
  0.000  0.000  0.000  1.002 -0.000
  0.000  0.000  0.000 -0.000  0.986
   spin  2
    eigenvalues:
  0.066  0.116  0.143  0.143  0.249
    eigenvectors:
  0.000  1.000  0.000  0.000  0.000
  0.000  0.000  0.284  0.716  0.000
  0.000  0.000  0.716  0.284  0.000
  1.000  0.000  0.000  0.000  0.000
  0.000  0.000  0.000  0.000  1.000
    occupations:
  0.116 -0.000 -0.000  0.000  0.000
 -0.000  0.143 -0.000  0.000  0.000
 -0.000 -0.000  0.143  0.000  0.000
  0.000  0.000  0.000  0.066 -0.000
  0.000  0.000  0.000 -0.000  0.249
atomic mag. moment =     4.258068
atom    7   Tr[ns(na)] (up, down, total) =   4.97532  0.71747  5.69279
   spin  1
    eigenvalues:
  0.986  0.995  0.995  0.998  1.002
    eigenvectors:
  0.000  0.000  0.000  1.000  0.000
  0.000  0.361  0.639  0.000  0.000
  0.000  0.639  0.361  0.000  0.000
  0.000  0.000  0.000  0.000  1.000
  1.000  0.000  0.000  0.000  0.000
    occupations:
  0.998 -0.000 -0.000  0.000  0.000
 -0.000  0.995 -0.000  0.000  0.000
 -0.000 -0.000  0.995  0.000  0.000
  0.000  0.000  0.000  1.002 -0.000
  0.000  0.000  0.000 -0.000  0.986
   spin  2
    eigenvalues:
  0.066  0.116  0.143  0.143  0.249
    eigenvectors:
  0.000  1.000  0.000  0.000  0.000
  0.000  0.000  0.305  0.695  0.000
  0.000  0.000  0.695  0.305  0.000
  1.000  0.000  0.000  0.000  0.000
  0.000  0.000  0.000  0.000  1.000
    occupations:
  0.116 -0.000 -0.000  0.000  0.000
 -0.000  0.143 -0.000  0.000  0.000
 -0.000 -0.000  0.143  0.000  0.000
  0.000  0.000  0.000  0.066 -0.000
  0.000  0.000  0.000 -0.000  0.249
atomic mag. moment =     4.257857
atom    8   Tr[ns(na)] (up, down, total) =   0.71463  4.97365  5.68828
   spin  1
    eigenvalues:
  0.063  0.116  0.142  0.142  0.251
    eigenvectors:
  0.000  1.000  0.000  0.000  0.000
  0.000  0.000  0.285  0.715  0.000
  0.000  0.000  0.715  0.285  0.000
  1.000  0.000  0.000  0.000  0.000
  0.000  0.000  0.000  0.000  1.000
    occupations:
  0.116 -0.000 -0.000  0.000  0.000
 -0.000  0.142 -0.000  0.000  0.000
 -0.000 -0.000  0.142  0.000  0.000
  0.000  0.000  0.000  0.063 -0.000
  0.000  0.000  0.000 -0.000  0.251
   spin  2
    eigenvalues:
  0.985  0.994  0.994  0.998  1.002
    eigenvectors:
  0.000  0.000  0.000  1.000  0.000
  0.000  0.316  0.684  0.000  0.000
  0.000  0.684  0.316  0.000  0.000
  0.000  0.000  0.000  0.000  1.000
  1.000  0.000  0.000  0.000  0.000
    occupations:
  0.998 -0.000 -0.000  0.000  0.000
 -0.000  0.994 -0.000  0.000  0.000
 -0.000 -0.000  0.994  0.000  0.000
  0.000  0.000  0.000  1.002 -0.000
  0.000  0.000  0.000 -0.000  0.985
atomic mag. moment =    -4.259011
N of occupied +U levels =   45.592222
 --- exit write_ns ---

 ------ SPIN UP ------------

          k = 0.0000 0.0000 0.0000 ( 14071 PWs)   bands (ev):

   -67.0397 -67.0389 -67.0288 -67.0276 -66.8971 -66.8964 -62.4807 -62.4798
   -35.8150 -35.8142 -35.7997 -35.7983 -35.7522 -35.7522 -35.7516 -35.7516
   -35.7440 -35.7440 -35.7429 -35.7429 -35.6794 -35.6791 -35.6089 -35.6089
   -35.6077 -35.6077 -31.3003 -31.2998 -31.2995 -31.2995 -31.2985 -31.2985
     5.5817   5.7144   5.7389   6.1553   6.1587   6.7772   6.8509   7.3993
     7.9887   8.2001   8.2095   8.2227   8.2668   8.2860   8.3412   8.4822
     8.5142   8.5296   8.5639   8.6231   8.6981   8.7584   8.9360   9.0146
     9.0552   9.1678   9.2027   9.2146   9.2465   9.3989   9.4305   9.6330
     9.7217   9.7304   9.7826   9.8076   9.8892   9.9198   9.9299   9.9299
     9.9435   9.9603   9.9711   9.9711  10.0072  10.0072  10.1442  10.1442
    10.1482  10.1482  10.1683  10.2197  10.2787  10.3040  10.3040  10.3249
    10.3249  10.3460  10.3460  10.3706  10.3706  10.3853  10.3853  10.3906
    10.4317  10.4317  10.4684  10.4714  10.4714  10.5234  10.5234  10.6253
    10.6834  10.7895  10.7895  10.8565  10.8594  10.8633  10.8633  10.9756
    11.0024  11.0346  11.0780  11.1618  11.1984  11.1984  11.3215  11.3385
    11.3620  11.3620  11.3887  11.4073  11.4535  11.4671  11.5714  11.6770
    11.7328  11.7328  11.7331  11.7770  11.7970  11.8031  11.8031  11.8886
    11.9296  11.9728  12.1836  12.1836  12.2641  12.2865  12.2865  12.3707
    12.4782  12.4857  12.4857  12.5192  12.6658  12.6794  12.7185  12.8116
    12.9171  13.6055  13.6856  14.7566  15.0584  15.9976  16.6431  16.6431
    16.6498  16.6498  16.6718  16.6737  16.8302  16.8324  17.0188  17.1979
    17.8053  18.8433  19.0641  19.8540  19.8540  20.1837  20.1837  20.2284
    20.2284  20.9186

[...]

          k =-0.5000-0.5000 0.0000 ( 14124 PWs)   bands (ev):

[...]

 ------ SPIN DOWN ----------

[...]

          k = 0.3333-0.5000-0.0478 ( 14140 PWs)   bands (ev):

[...]

          k =-0.5000-0.5000-0.0478 ( 14176 PWs)   bands (ev):

   -67.0907 -67.0889 -62.4282 -62.4277 -62.4181 -62.4172 -62.3200 -62.3200
   -35.8641 -35.8634 -35.8150 -35.8150 -35.8128 -35.8128 -31.2609 -31.2609
   -31.2603 -31.2603 -31.2528 -31.2528 -31.2518 -31.2518 -31.2514 -31.2512
   -31.2381 -31.2374 -31.1517 -31.1517 -31.1516 -31.1516 -31.1499 -31.1498
     8.0281   8.0297   8.0749   8.0760   8.4632   8.4640   8.5309   8.5313
     8.7972   8.7976   8.8783   8.8792   9.0570   9.0570   9.0767   9.0767
     9.1290   9.1297   9.1722   9.1728   9.1845   9.1845   9.1858   9.1858
     9.3735   9.3735   9.3750   9.3750   9.6459   9.6459   9.6508   9.6508
     9.6771   9.6771   9.6829   9.6829   9.7055   9.7072  10.0698  10.0698
    10.1066  10.1066  10.3697  10.3702  10.4470  10.4475  10.5072  10.5075
    10.5209  10.5209  10.6602  10.6602  10.9907  10.9913  11.0115  11.0115
    11.0167  11.0169  11.1363  11.1383  11.2181  11.2181  11.6766  11.6766
    11.6975  11.6983  11.7482  11.7482  11.7544  11.7545  11.7737  11.7737
    11.7783  11.7791  11.8010  11.8015  11.8400  11.8402  11.8445  11.8445
    11.8845  11.8850  11.9111  11.9114  11.9743  11.9745  12.0218  12.0222
    12.0607  12.0608  13.1910  13.1917  13.2016  13.2023  13.2332  13.2345
    13.7423  13.7423  13.8047  13.8047  14.0808  14.0808  14.2778  14.2778
    14.3929  14.3929  14.5690  14.5690  15.6445  15.6445  15.6600  15.6600
    16.3605  16.3611  16.5706  16.5709  16.6902  16.6902  16.8637  16.8639
    16.9208  16.9208  17.0428  17.0428  17.4912  17.4913  17.4939  17.4939
    17.5845  17.5848  17.7019  17.7019  17.8314  17.8317  17.8337  17.8343
    17.9042  17.9042  17.9519  17.9533  18.1293  18.1295  18.5419  18.5426
    18.5763  18.5763

     the Fermi energy is    15.0357 ev

!    total energy              =  -14694.01689686 Ry
     Harris-Foulkes estimate   =  -14694.01689429 Ry
     estimated scf accuracy    <       0.00000097 Ry

     total all-electron energy =   -626921.612619 Ry

     The total energy is the sum of the following terms:

     one-electron contribution =    -729.72766713 Ry
     hartree contribution      =     661.40227431 Ry
     xc contribution           =    -737.66996147 Ry
     ewald contribution        =   -2186.64874840 Ry
     Hubbard energy            =       0.44200811 Ry
     one-center paw contrib.   =  -11701.81480228 Ry

     total magnetization       =    17.37 Bohr mag/cell
     absolute magnetization    =    37.34 Bohr mag/cell

     convergence has been achieved in  31 iterations

     Writing output data file mnau2.save/

     General routines

     Parallel routines

     Hubbard U routines

   This run was terminated on:  17:23:13  29Mar2019

   JOB DONE.