     Program PWSCF v.6.3MaX starts on 29Mar2019 at 17:23:16

     R & G space division:  proc/nbgrp/npool/nimage =      32
     Waiting for input...
     Reading input from standard input

     Current dimensions of program PWSCF are:
     Max number of different atomic species (ntypx) = 10
     Max number of k-points (npk) =  40000
     Max angular momentum in pseudopotentials (lmaxx) =  3
     Message from routine read_upf::
     Pseudo file ./pseudo/Mn.pbe-spn-kjpaw_psl.0.3.1.UPF has been successfully fixed on the fly.
To avoid this message in the future you can permanently fix
 your pseudo files following instructions given in:
               file Mn.pbe-spn-kjpaw_psl.0.3.1.UPF: wavefunction(s)  3P 3D renormalized
     Message from routine read_upf::
     Pseudo file ./pseudo/Mn.pbe-spn-kjpaw_psl.0.3.1.UPF has been successfully fixed on the fly.
To avoid this message in the future you can permanently fix
 your pseudo files following instructions given in:
               file Mn.pbe-spn-kjpaw_psl.0.3.1.UPF: wavefunction(s)  3P 3D renormalized
     Message from routine read_upf::
     Pseudo file ./pseudo/Au.pbe-dn-kjpaw_psl.0.1.UPF has been successfully fixed on the fly.
To avoid this message in the future you can permanently fix
 your pseudo files following instructions given in:
               file Au.pbe-dn-kjpaw_psl.0.1.UPF: wavefunction(s)  6S 6P 5D renormalized

     bravais-lattice index     =            0
     lattice parameter (alat)  =       6.4153  a.u.
     unit-cell volume          =    2762.7331 (a.u.)^3
     number of atoms/cell      =           24
     number of atomic types    =            3
     number of electrons       =       296.00
     number of Kohn-Sham states=          178
     kinetic-energy cutoff     =      45.0000  Ry
     charge density cutoff     =     400.0000  Ry
     convergence threshold     =      1.0E-06
     mixing beta               =       0.1000
     number of iterations used =            8  plain     mixing
     Exchange-correlation      = SLA PW PBX PBC ( 1  4  3  4 0 0)

     celldm(1)=   6.415315  celldm(2)=   0.000000  celldm(3)=   0.000000
     celldm(4)=   0.000000  celldm(5)=   0.000000  celldm(6)=   0.000000

     crystal axes: (cart. coord. in units of alat)
               a(1) = (   1.000000   0.000000   0.000000 )
               a(2) = (   0.000000   1.000000   0.000000 )
               a(3) = (   0.000000   0.000000  10.463692 )

     reciprocal axes: (cart. coord. in units 2 pi/alat)
               b(1) = (  1.000000  0.000000  0.000000 )
               b(2) = (  0.000000  1.000000  0.000000 )
               b(3) = (  0.000000  0.000000  0.095569 )

     PseudoPot. # 1 for Mn read from file:
     ./pseudo/Mn.pbe-spn-kjpaw_psl.0.3.1.UPF
     MD5 check sum: 7eef95dd2aae66803482eea66ebeebf1
     Pseudo is Projector augmented-wave + core cor, Zval = 15.0
     Generated using "atomic" code by A. Dal Corso v.5.0.99 svn rev. 10869
     Shape of augmentation charge: PSQ
     Using radial grid of 1187 points,  6 beta functions with:
                l(1) =   0
                l(2) =   0
                l(3) =   1
                l(4) =   1
                l(5) =   2
                l(6) =   2
     Q(r) pseudized with 0 coefficients

     PseudoPot. # 2 for Mn read from file:
     ./pseudo/Mn.pbe-spn-kjpaw_psl.0.3.1.UPF
     MD5 check sum: 7eef95dd2aae66803482eea66ebeebf1
     Pseudo is Projector augmented-wave + core cor, Zval = 15.0
     Generated using "atomic" code by A. Dal Corso v.5.0.99 svn rev. 10869
     Shape of augmentation charge: PSQ
     Using radial grid of 1187 points,  6 beta functions with:
                l(1) =   0
                l(2) =   0
                l(3) =   1
                l(4) =   1
                l(5) =   2
                l(6) =   2
     Q(r) pseudized with 0 coefficients

     PseudoPot. # 3 for Au read from file:
     ./pseudo/Au.pbe-dn-kjpaw_psl.0.1.UPF
     MD5 check sum: 5c9b92683623e7ae2ab3f8e525febab6
     Pseudo is Projector augmented-wave + core cor, Zval = 11.0
     Generated using "atomic" code by A. Dal Corso v.5.0.2 svn rev. 9415
     Shape of augmentation charge: PSQ
     Using radial grid of 1279 points,  6 beta functions with:
                l(1) =   0
                l(2) =   0
                l(3) =   1
                l(4) =   1
                l(5) =   2
                l(6) =   2
     Q(r) pseudized with 0 coefficients

     atomic species   valence    mass     pseudopotential
        Mn1           15.00    54.93800     Mn( 1.00)
        Mn2           15.00    54.93800     Mn( 1.00)
        Au            11.00   196.96600     Au( 1.00)

     Starting magnetic structure
     atomic species   magnetization
        Mn1          0.800
        Mn2         -0.800
        Au           0.000

     Full LDA+U calculation (l_max = 2) with parameters (eV):
     U(  1) =   3.1200   J(  1) =   0.7000   B(  1) =   0.0803
     U(  2) =   3.1200   J(  2) =   0.7000   B(  2) =   0.0803

      8 Sym. Ops. (no inversion) found

   Cartesian axes

     site n.     atom                  positions (alat units)
         1           Mn1 tau(   1) = (   0.0000000   0.0000000   0.0000000  )
         2           Mn1 tau(   2) = (   0.5000000   0.5000000   1.3079615  )
         3           Mn1 tau(   3) = (   0.0000000   0.0000000   2.6159231  )
         4           Mn1 tau(   4) = (   0.5000000   0.5000000   3.9238846  )
         5           Mn2 tau(   5) = (   0.0000000   0.0000000   5.2318461  )
         6           Mn1 tau(   6) = (   0.5000000   0.5000000   6.5398077  )
         7           Mn2 tau(   7) = (   0.0000000   0.0000000   7.8477692  )
         8           Mn2 tau(   8) = (   0.5000000   0.5000000   9.1557307  )
         9           Au  tau(   9) = (   0.5000000   0.5000000   0.4185477  )
        10           Au  tau(  10) = (   0.0000000   0.0000000   0.8894138  )
        11           Au  tau(  11) = (   0.0000000   0.0000000   1.7265092  )
        12           Au  tau(  12) = (   0.5000000   0.5000000   2.1973754  )
        13           Au  tau(  13) = (   0.5000000   0.5000000   3.0344708  )
        14           Au  tau(  14) = (   0.0000000   0.0000000   3.5053369  )
        15           Au  tau(  15) = (   0.0000000   0.0000000   4.3424323  )
        16           Au  tau(  16) = (   0.5000000   0.5000000   4.8132984  )
        17           Au  tau(  17) = (   0.5000000   0.5000000   5.6503938  )
        18           Au  tau(  18) = (   0.0000000   0.0000000   6.1212600  )
        19           Au  tau(  19) = (   0.0000000   0.0000000   6.9583554  )
        20           Au  tau(  20) = (   0.5000000   0.5000000   7.4292215  )
        21           Au  tau(  21) = (   0.5000000   0.5000000   8.2663169  )
        22           Au  tau(  22) = (   0.0000000   0.0000000   8.7371830  )
        23           Au  tau(  23) = (   0.0000000   0.0000000   9.5742784  )
        24           Au  tau(  24) = (   0.5000000   0.5000000  10.0451446  )

     number of k points=    40 (tetrahedron method)
                       cart. coord. in units 2pi/alat
        k(    1) = (   0.0000000   0.0000000   0.0000000), wk =   0.0046296
        k(    2) = (   0.0000000   0.0000000   0.0159281), wk =   0.0092593
        k(    3) = (   0.0000000   0.0000000   0.0318562), wk =   0.0092593
        k(    4) = (   0.0000000   0.0000000  -0.0477843), wk =   0.0046296
        k(    5) = (   0.0000000   0.1666667   0.0000000), wk =   0.0185185
        k(    6) = (   0.0000000   0.1666667   0.0159281), wk =   0.0370370
        k(    7) = (   0.0000000   0.1666667   0.0318562), wk =   0.0370370
        k(    8) = (   0.0000000   0.1666667  -0.0477843), wk =   0.0185185
        k(    9) = (   0.0000000   0.3333333   0.0000000), wk =   0.0185185
        k(   10) = (   0.0000000   0.3333333   0.0159281), wk =   0.0370370
        k(   11) = (   0.0000000   0.3333333   0.0318562), wk =   0.0370370
        k(   12) = (   0.0000000   0.3333333  -0.0477843), wk =   0.0185185
        k(   13) = (   0.0000000  -0.5000000   0.0000000), wk =   0.0092593
        k(   14) = (   0.0000000  -0.5000000   0.0159281), wk =   0.0185185
        k(   15) = (   0.0000000  -0.5000000   0.0318562), wk =   0.0185185
        k(   16) = (   0.0000000  -0.5000000  -0.0477843), wk =   0.0092593
        k(   17) = (   0.1666667   0.1666667   0.0000000), wk =   0.0185185
        k(   18) = (   0.1666667   0.1666667   0.0159281), wk =   0.0370370
        k(   19) = (   0.1666667   0.1666667   0.0318562), wk =   0.0370370
        k(   20) = (   0.1666667   0.1666667  -0.0477843), wk =   0.0185185
        k(   21) = (   0.1666667   0.3333333   0.0000000), wk =   0.0370370
        k(   22) = (   0.1666667   0.3333333   0.0159281), wk =   0.0740741
        k(   23) = (   0.1666667   0.3333333   0.0318562), wk =   0.0740741
        k(   24) = (   0.1666667   0.3333333  -0.0477843), wk =   0.0370370
        k(   25) = (   0.1666667  -0.5000000   0.0000000), wk =   0.0185185
        k(   26) = (   0.1666667  -0.5000000   0.0159281), wk =   0.0370370
        k(   27) = (   0.1666667  -0.5000000   0.0318562), wk =   0.0370370
        k(   28) = (   0.1666667  -0.5000000  -0.0477843), wk =   0.0185185
        k(   29) = (   0.3333333   0.3333333   0.0000000), wk =   0.0185185
        k(   30) = (   0.3333333   0.3333333   0.0159281), wk =   0.0370370
        k(   31) = (   0.3333333   0.3333333   0.0318562), wk =   0.0370370
        k(   32) = (   0.3333333   0.3333333  -0.0477843), wk =   0.0185185
        k(   33) = (   0.3333333  -0.5000000   0.0000000), wk =   0.0185185
        k(   34) = (   0.3333333  -0.5000000   0.0159281), wk =   0.0370370
        k(   35) = (   0.3333333  -0.5000000   0.0318562), wk =   0.0370370
        k(   36) = (   0.3333333  -0.5000000  -0.0477843), wk =   0.0185185
        k(   37) = (  -0.5000000  -0.5000000   0.0000000), wk =   0.0046296
        k(   38) = (  -0.5000000  -0.5000000   0.0159281), wk =   0.0092593
        k(   39) = (  -0.5000000  -0.5000000   0.0318562), wk =   0.0092593
        k(   40) = (  -0.5000000  -0.5000000  -0.0477843), wk =   0.0046296

     Check: negative/imaginary core charge=   -0.000006    0.000000

     Initial potential from superposition of free atoms

     starting charge  295.99426, renormalised to  296.00000
     Number of +U iterations with fixed ns =  0
     Starting occupations:
 --- enter write_ns ---
 LDA+U parameters:
U(  1) =   3.1200   J(  1) =   0.7000   B(  1) =   0.0803
U(  2) =   3.1200   J(  2) =   0.7000   B(  2) =   0.0803
atom    1   Tr[ns(na)] (up, down, total) =   5.00000  0.00000  5.00000
   spin  1
    eigenvalues:
  1.000  1.000  1.000  1.000  1.000
    eigenvectors:
  1.000  0.000  0.000  0.000  0.000
  0.000  1.000  0.000  0.000  0.000
  0.000  0.000  1.000  0.000  0.000
  0.000  0.000  0.000  1.000  0.000
  0.000  0.000  0.000  0.000  1.000
    occupations:
  1.000  0.000  0.000  0.000  0.000
  0.000  1.000  0.000  0.000  0.000
  0.000  0.000  1.000  0.000  0.000
  0.000  0.000  0.000  1.000  0.000
  0.000  0.000  0.000  0.000  1.000
   spin  2
    eigenvalues:
  0.000  0.000  0.000  0.000  0.000
    eigenvectors:
  1.000  0.000  0.000  0.000  0.000
[...]
  0.000  0.000  0.000 -0.000  0.115
   spin  2
    eigenvalues:
  1.003  1.003  1.003  1.004  1.004
    eigenvectors:
  0.000  0.000  0.000  1.000  0.000
  0.000  0.335  0.665  0.000  0.000
  0.000  0.665  0.335  0.000  0.000
  0.000  0.000  0.000  0.000  1.000
  1.000  0.000  0.000  0.000  0.000
    occupations:
  1.004 -0.000 -0.000  0.000  0.000
 -0.000  1.003 -0.000  0.000  0.000
 -0.000 -0.000  1.003  0.000  0.000
  0.000  0.000  0.000  1.004 -0.000
  0.000  0.000  0.000 -0.000  1.003
atomic mag. moment =    -4.619309
N of occupied +U levels =   43.300987
 --- exit write_ns ---

     total energy              =  -14687.29973442 Ry
     Harris-Foulkes estimate   =  -14685.83990928 Ry
     estimated scf accuracy    <      11.50836342 Ry

     total magnetization       =    10.15 Bohr mag/cell
     absolute magnetization    =    41.73 Bohr mag/cell

     iteration #  2     ecut=    45.00 Ry     beta= 0.10
     Davidson diagonalization with overlap
     ethr =  3.89E-03,  avg # of iterations =  1.0

[...]

     iteration # 13     ecut=    45.00 Ry     beta= 0.10
     Davidson diagonalization with overlap
     c_bands:  3 eigenvalues not converged
     ethr =  8.60E-06,  avg # of iterations =  1.7

[...]

     iteration # 16     ecut=    45.00 Ry     beta= 0.10
     Davidson diagonalization with overlap
     c_bands:  4 eigenvalues not converged
     c_bands:  3 eigenvalues not converged
     ethr =  2.25E-06,  avg # of iterations =  4.7

[...]

     total energy              =  -14694.01747620 Ry
     Harris-Foulkes estimate   =  -14694.01747554 Ry
     estimated scf accuracy    <       0.00000141 Ry

[...]

     iteration # 30     ecut=    45.00 Ry     beta= 0.10
     Davidson diagonalization with overlap
     ethr =  4.76E-10,  avg # of iterations =  1.7

     Magnetic moment per site:
     atom:    1    charge:   13.5494    magn:    4.2418    constr:    0.0000
     atom:    2    charge:   13.5533    magn:    4.2156    constr:    0.0000
     atom:    3    charge:   13.5531    magn:    4.2176    constr:    0.0000
     atom:    4    charge:   13.5476    magn:    4.2528    constr:    0.0000
     atom:    5    charge:   13.5442    magn:   -4.2768    constr:    0.0000
     atom:    6    charge:   13.5449    magn:    4.2700    constr:    0.0000
     atom:    7    charge:   13.5458    magn:   -4.2604    constr:    0.0000
     atom:    8    charge:   13.5486    magn:   -4.2492    constr:    0.0000
     atom:    9    charge:    9.1367    magn:    0.0308    constr:    0.0000
     atom:   10    charge:    9.1367    magn:    0.0305    constr:    0.0000
     atom:   11    charge:    9.1360    magn:    0.0319    constr:    0.0000
     atom:   12    charge:    9.1351    magn:    0.0311    constr:    0.0000
     atom:   13    charge:    9.1364    magn:    0.0292    constr:    0.0000
     atom:   14    charge:    9.1380    magn:    0.0294    constr:    0.0000
     atom:   15    charge:    9.1400    magn:    0.0349    constr:    0.0000
     atom:   16    charge:    9.1399    magn:   -0.0374    constr:    0.0000
     atom:   17    charge:    9.1401    magn:   -0.0358    constr:    0.0000
     atom:   18    charge:    9.1406    magn:    0.0350    constr:    0.0000
     atom:   19    charge:    9.1392    magn:    0.0363    constr:    0.0000
     atom:   20    charge:    9.1392    magn:   -0.0411    constr:    0.0000
     atom:   21    charge:    9.1385    magn:   -0.0337    constr:    0.0000
     atom:   22    charge:    9.1383    magn:   -0.0343    constr:    0.0000
     atom:   23    charge:    9.1386    magn:   -0.0428    constr:    0.0000
     atom:   24    charge:    9.1376    magn:    0.0365    constr:    0.0000

     End of self-consistent calculation
 --- enter write_ns ---
 LDA+U parameters:
U(  1) =   3.1200   J(  1) =   0.7000   B(  1) =   0.0803
U(  2) =   3.1200   J(  2) =   0.7000   B(  2) =   0.0803
atom    1   Tr[ns(na)] (up, down, total) =   4.97327  0.73046  5.70373
   spin  1
    eigenvalues:
  0.985  0.994  0.994  0.998  1.002
    eigenvectors:
  0.000  0.000  0.000  1.000  0.000
  0.000  0.272  0.728  0.000  0.000
  0.000  0.728  0.272  0.000  0.000
  0.000  0.000  0.000  0.000  1.000
  1.000  0.000  0.000  0.000  0.000
    occupations:
  0.998 -0.000 -0.000  0.000  0.000
 -0.000  0.994 -0.000  0.000  0.000
 -0.000 -0.000  0.994  0.000  0.000
  0.000  0.000  0.000  1.002 -0.000
  0.000  0.000  0.000 -0.000  0.985
   spin  2
    eigenvalues:
  0.064  0.125  0.142  0.142  0.258
    eigenvectors:
  0.000  1.000  0.000  0.000  0.000
  0.000  0.000  0.300  0.700  0.000
  0.000  0.000  0.700  0.300  0.000
  1.000  0.000  0.000  0.000  0.000
  0.000  0.000  0.000  0.000  1.000
    occupations:
  0.125 -0.000 -0.000  0.000  0.000
 -0.000  0.142 -0.000  0.000  0.000
 -0.000 -0.000  0.142  0.000  0.000
  0.000  0.000  0.000  0.064 -0.000
  0.000  0.000  0.000 -0.000  0.258
atomic mag. moment =     4.242815
atom    2   Tr[ns(na)] (up, down, total) =   4.97220  0.75240  5.72460
   spin  1
    eigenvalues:
  0.985  0.994  0.994  0.998  1.002
    eigenvectors:
  0.000  0.000  0.000  1.000  0.000
  0.000  0.326  0.674  0.000  0.000
  0.000  0.674  0.326  0.000  0.000
  0.000  0.000  0.000  0.000  1.000
  1.000  0.000  0.000  0.000  0.000
    occupations:
  0.998 -0.000 -0.000  0.000  0.000
 -0.000  0.994 -0.000  0.000  0.000
 -0.000 -0.000  0.994  0.000  0.000
  0.000  0.000  0.000  1.002 -0.000
  0.000  0.000  0.000 -0.000  0.985
   spin  2
    eigenvalues:
  0.064  0.136  0.142  0.142  0.269
    eigenvectors:
  0.000  1.000  0.000  0.000  0.000
  0.000  0.000  0.359  0.641  0.000
  0.000  0.000  0.641  0.359  0.000
  1.000  0.000  0.000  0.000  0.000
  0.000  0.000  0.000  0.000  1.000
    occupations:
  0.136 -0.000 -0.000  0.000  0.000
 -0.000  0.142 -0.000  0.000  0.000
 -0.000 -0.000  0.142  0.000  0.000
  0.000  0.000  0.000  0.064 -0.000
  0.000  0.000  0.000 -0.000  0.269
atomic mag. moment =     4.219794
atom    3   Tr[ns(na)] (up, down, total) =   4.97239  0.75132  5.72372
   spin  1
    eigenvalues:
  0.985  0.994  0.994  0.998  1.002
    eigenvectors:
  0.000  0.000  0.000  1.000  0.000
  0.000  0.353  0.647  0.000  0.000
  0.000  0.647  0.353  0.000  0.000
  0.000  0.000  0.000  0.000  1.000
  1.000  0.000  0.000  0.000  0.000
    occupations:
  0.998 -0.000 -0.000  0.000  0.000
 -0.000  0.994 -0.000  0.000  0.000
 -0.000 -0.000  0.994  0.000  0.000
  0.000  0.000  0.000  1.002 -0.000
  0.000  0.000  0.000 -0.000  0.985
   spin  2
    eigenvalues:
  0.063  0.134  0.143  0.143  0.267
    eigenvectors:
  0.000  1.000  0.000  0.000  0.000
  0.000  0.000  0.412  0.588  0.000
  0.000  0.000  0.588  0.412  0.000
  1.000  0.000  0.000  0.000  0.000
  0.000  0.000  0.000  0.000  1.000
    occupations:
  0.134 -0.000 -0.000  0.000  0.000
 -0.000  0.143 -0.000  0.000  0.000
 -0.000 -0.000  0.143  0.000  0.000
  0.000  0.000  0.000  0.063 -0.000
  0.000  0.000  0.000 -0.000  0.267
atomic mag. moment =     4.221070
atom    4   Tr[ns(na)] (up, down, total) =   4.97488  0.72052  5.69539
   spin  1
    eigenvalues:
  0.986  0.994  0.994  0.998  1.002
    eigenvectors:
  0.000  0.000  0.000  1.000  0.000
  0.000  0.306  0.694  0.000  0.000
  0.000  0.694  0.306  0.000  0.000
  0.000  0.000  0.000  0.000  1.000
  1.000  0.000  0.000  0.000  0.000
    occupations:
  0.998 -0.000 -0.000  0.000  0.000
 -0.000  0.994 -0.000  0.000  0.000
 -0.000 -0.000  0.994  0.000  0.000
  0.000  0.000  0.000  1.002 -0.000
  0.000  0.000  0.000 -0.000  0.986
   spin  2
    eigenvalues:
  0.066  0.126  0.140  0.140  0.248
    eigenvectors:
  0.000  1.000  0.000  0.000  0.000
  0.000  0.000  0.318  0.682  0.000
  0.000  0.000  0.682  0.318  0.000
  1.000  0.000  0.000  0.000  0.000
  0.000  0.000  0.000  0.000  1.000
    occupations:
  0.126 -0.000 -0.000  0.000  0.000
 -0.000  0.140 -0.000  0.000  0.000
 -0.000 -0.000  0.140  0.000  0.000
  0.000  0.000  0.000  0.066 -0.000
  0.000  0.000  0.000 -0.000  0.248
atomic mag. moment =     4.254360
atom    5   Tr[ns(na)] (up, down, total) =   0.70220  4.97531  5.67752
   spin  1
    eigenvalues:
  0.065  0.110  0.140  0.140  0.246
    eigenvectors:
  0.000  1.000  0.000  0.000  0.000
  0.000  0.000  0.482  0.518  0.000
  0.000  0.000  0.518  0.482  0.000
  1.000  0.000  0.000  0.000  0.000
  0.000  0.000  0.000  0.000  1.000
    occupations:
  0.110 -0.000 -0.000  0.000  0.000
 -0.000  0.140 -0.000  0.000  0.000
 -0.000 -0.000  0.140  0.000  0.000
  0.000  0.000  0.000  0.065 -0.000
  0.000  0.000  0.000 -0.000  0.246
   spin  2
    eigenvalues:
  0.985  0.994  0.994  0.999  1.002
    eigenvectors:
  0.000  0.000  0.000  1.000  0.000
  0.000  0.264  0.736  0.000  0.000
  0.000  0.736  0.264  0.000  0.000
  0.000  0.000  0.000  0.000  1.000
  1.000  0.000  0.000  0.000  0.000
    occupations:
  0.999 -0.000 -0.000  0.000  0.000
 -0.000  0.994 -0.000  0.000  0.000
 -0.000 -0.000  0.994  0.000  0.000
  0.000  0.000  0.000  1.002 -0.000
  0.000  0.000  0.000 -0.000  0.985
atomic mag. moment =    -4.273109
atom    6   Tr[ns(na)] (up, down, total) =   4.97482  0.70629  5.68110
   spin  1
    eigenvalues:
  0.985  0.994  0.994  0.998  1.002
    eigenvectors:
  0.000  0.000  0.000  1.000  0.000
  0.000  0.327  0.673  0.000  0.000
  0.000  0.673  0.327  0.000  0.000
  0.000  0.000  0.000  0.000  1.000
  1.000  0.000  0.000  0.000  0.000
    occupations:
  0.998 -0.000 -0.000  0.000  0.000
 -0.000  0.994 -0.000  0.000  0.000
 -0.000 -0.000  0.994  0.000  0.000
  0.000  0.000  0.000  1.002 -0.000
  0.000  0.000  0.000 -0.000  0.985
   spin  2
    eigenvalues:
  0.065  0.113  0.141  0.141  0.246
    eigenvectors:
  0.000  1.000  0.000  0.000  0.000
  0.000  0.000  0.354  0.646  0.000
  0.000  0.000  0.646  0.354  0.000
  1.000  0.000  0.000  0.000  0.000
  0.000  0.000  0.000  0.000  1.000
    occupations:
  0.113 -0.000 -0.000  0.000  0.000
 -0.000  0.141 -0.000  0.000  0.000
 -0.000 -0.000  0.141  0.000  0.000
  0.000  0.000  0.000  0.065 -0.000
  0.000  0.000  0.000 -0.000  0.246
atomic mag. moment =     4.268535
atom    7   Tr[ns(na)] (up, down, total) =   0.71533  4.97580  5.69113
   spin  1
    eigenvalues:
  0.067  0.124  0.137  0.137  0.250
    eigenvectors:
  0.000  1.000  0.000  0.000  0.000
  0.000  0.000  0.320  0.680  0.000
  0.000  0.000  0.680  0.320  0.000
  1.000  0.000  0.000  0.000  0.000
  0.000  0.000  0.000  0.000  1.000
    occupations:
  0.124 -0.000 -0.000  0.000  0.000
 -0.000  0.137 -0.000  0.000  0.000
 -0.000 -0.000  0.137  0.000  0.000
  0.000  0.000  0.000  0.067 -0.000
  0.000  0.000  0.000 -0.000  0.250
   spin  2
    eigenvalues:
  0.986  0.995  0.995  0.998  1.002
    eigenvectors:
  0.000  0.000  0.000  1.000  0.000
  0.000  0.340  0.660  0.000  0.000
  0.000  0.660  0.340  0.000  0.000
  0.000  0.000  0.000  0.000  1.000
  1.000  0.000  0.000  0.000  0.000
    occupations:
  0.998 -0.000 -0.000  0.000  0.000
 -0.000  0.995 -0.000  0.000  0.000
 -0.000 -0.000  0.995  0.000  0.000
  0.000  0.000  0.000  1.002 -0.000
  0.000  0.000  0.000 -0.000  0.986
atomic mag. moment =    -4.260471
atom    8   Tr[ns(na)] (up, down, total) =   0.72702  4.97409  5.70111
   spin  1
    eigenvalues:
  0.064  0.123  0.142  0.142  0.256
    eigenvectors:
  0.000  1.000  0.000  0.000  0.000
  0.000  0.000  0.359  0.641  0.000
  0.000  0.000  0.641  0.359  0.000
  1.000  0.000  0.000  0.000  0.000
  0.000  0.000  0.000  0.000  1.000
    occupations:
  0.123 -0.000 -0.000  0.000  0.000
 -0.000  0.142 -0.000  0.000  0.000
 -0.000 -0.000  0.142  0.000  0.000
  0.000  0.000  0.000  0.064 -0.000
  0.000  0.000  0.000 -0.000  0.256
   spin  2
    eigenvalues:
  0.986  0.994  0.994  0.998  1.002
    eigenvectors:
  0.000  0.000  0.000  1.000  0.000
  0.000  0.345  0.655  0.000  0.000
  0.000  0.655  0.345  0.000  0.000
  0.000  0.000  0.000  0.000  1.000
  1.000  0.000  0.000  0.000  0.000
    occupations:
  0.998 -0.000 -0.000  0.000  0.000
 -0.000  0.994 -0.000  0.000  0.000
 -0.000 -0.000  0.994  0.000  0.000
  0.000  0.000  0.000  1.002 -0.000
  0.000  0.000  0.000 -0.000  0.986
atomic mag. moment =    -4.247074
N of occupied +U levels =   45.598300
 --- exit write_ns ---

 ------ SPIN UP ------------

          k = 0.0000 0.0000 0.0000 ( 14071 PWs)   bands (ev):

   -67.1036 -67.0195 -66.9987 -66.8942 -66.8881 -62.4913 -62.4317 -62.4225
   -35.8749 -35.8170 -35.8170 -35.7886 -35.7758 -35.7355 -35.7355 -35.7113
   -35.7113 -35.6749 -35.6703 -35.6071 -35.6071 -35.6002 -35.6002 -31.3110
   -31.3110 -31.3087 -31.2557 -31.2494 -31.2494 -31.2474 -31.2403 -31.2403
     5.5986   5.7268   5.7720   6.1579   6.2130   6.8110   6.8560   7.4011
     8.0463   8.2001   8.2183   8.2876   8.3041   8.3361   8.3800   8.4866
     8.5801   8.6069   8.6481   8.7535   8.8426   8.9509   8.9950   9.0385
     9.0530   9.1666   9.2122   9.2445   9.4023   9.4274   9.6701   9.7262
     9.7836   9.7935   9.8021   9.8905   9.9120   9.9329   9.9329   9.9501
     9.9831   9.9831  10.0039  10.0039  10.0784  10.1470  10.1470  10.1540
    10.1540  10.1675  10.2238  10.3020  10.3020  10.3291  10.3330  10.3330
    10.3571  10.3571  10.3877  10.3877  10.3921  10.4034  10.4034  10.4703
    10.4777  10.4777  10.5118  10.5118  10.5779  10.7048  10.7435  10.7685
    10.7685  10.8595  10.8686  10.8686  10.9761  11.0038  11.0377  11.0749
    11.1693  11.1934  11.1934  11.2142  11.3160  11.3160  11.3348  11.3450
    11.4160  11.5735  11.5920  11.5920  11.6024  11.6588  11.7377  11.7794
    11.8045  11.8045  11.8095  11.8915  11.9281  11.9756  12.0586  12.0586
    12.1889  12.1889  12.2778  12.4835  12.4835  12.4841  12.5051  12.5236
    12.6705  12.6954  12.8114  12.8552  13.3738  13.6822  14.6560  14.8146
    15.8902  16.5585  16.5585  16.6394  16.6394  16.6553  16.6798  16.7370
    16.8425  16.8425  16.8434  16.8524  16.9034  17.0364  17.2198  17.2251
    17.9299  19.0105  19.1530  19.8825  19.8825  20.2266  20.2266  20.2839
    20.2839  20.9494

[...]

          k =-0.5000-0.5000 0.0000 ( 14124 PWs)   bands (ev):

[...]

 ------ SPIN DOWN ----------

[...]

          k = 0.3333-0.5000-0.0478 ( 14140 PWs)   bands (ev):

[...]

          k =-0.5000-0.5000-0.0478 ( 14176 PWs)   bands (ev):

   -67.1142 -67.0435 -67.0202 -62.4834 -62.4126 -62.4042 -62.3207 -62.3163
   -35.8870 -35.8383 -35.8383 -35.8190 -35.7963 -35.7674 -35.7674 -35.7449
   -35.7449 -31.3177 -31.3177 -31.3004 -31.2469 -31.2469 -31.2375 -31.2375
   -31.2331 -31.2274 -31.1530 -31.1530 -31.1497 -31.1483 -31.1483 -31.1459
     7.9178   7.9207   8.0374   8.0731   8.3294   8.3804   8.4612   8.4826
     8.7092   8.7674   8.8478   8.8661   9.0493   9.0493   9.0828   9.0828
     9.1073   9.1324   9.1525   9.1530   9.1669   9.1669   9.1810   9.1810
     9.3599   9.3599   9.3695   9.3695   9.6303   9.6367   9.6367   9.6420
     9.6420   9.6589   9.6589   9.6686   9.6686   9.6993   9.7588   9.7730
     9.7730  10.0566  10.0566  10.1362  10.1362  10.3454  10.4027  10.4287
    10.4996  10.5028  10.5354  10.5354  10.6998  10.6998  10.9245  10.9354
    10.9928  10.9962  11.1203  11.1251  11.1251  11.1671  11.1729  11.1900
    11.2026  11.2445  11.2445  11.6867  11.6867  11.7050  11.7227  11.7303
    11.7343  11.7502  11.7592  11.7855  11.7925  11.7956  11.8102  11.8132
    11.8184  11.8378  11.8459  11.8763  11.8803  11.9206  11.9572  11.9647
    12.0045  12.0121  12.0234  12.0606  12.0769  12.0769  12.0866  13.1645
    13.1856  13.2035  13.2266  13.2297  13.6997  13.6997  13.8436  13.8436
    14.0863  14.0863  14.3195  14.3195  14.5661  14.5661  14.9628  14.9628
    15.6472  15.6472  16.3395  16.3612  16.3612  16.4159  16.4318  16.5953
    16.6435  16.7001  16.7823  16.8757  16.9215  16.9215  17.3796  17.3796
    17.4808  17.4916  17.4983  17.5964  17.6000  17.6000  17.7163  17.7802
    17.8378  17.8667  17.9291  17.9514  17.9571  18.0953  18.1524  18.4394
    18.4424  18.4424

     the Fermi energy is    15.0344 ev

!    total energy              =  -14694.01747929 Ry
     Harris-Foulkes estimate   =  -14694.01747641 Ry
     estimated scf accuracy    <       0.00000030 Ry

     total all-electron energy =   -626921.613201 Ry

     The total energy is the sum of the following terms:

     one-electron contribution =    -729.75032862 Ry
     hartree contribution      =     661.42535571 Ry
     xc contribution           =    -737.67185951 Ry
     ewald contribution        =   -2186.64874840 Ry
     Hubbard energy            =       0.44232380 Ry
     one-center paw contrib.   =  -11701.81422226 Ry

     total magnetization       =     8.58 Bohr mag/cell
     absolute magnetization    =    37.32 Bohr mag/cell

     convergence has been achieved in  30 iterations

     Writing output data file mnau2.save/

     General routines

     Parallel routines

     Hubbard U routines

   This run was terminated on:  17:51: 1  29Mar2019

   JOB DONE.