     Program PWSCF v.6.3MaX starts on 29Mar2019 at 17:51: 2

     R & G space division:  proc/nbgrp/npool/nimage =      32
     Waiting for input...
     Reading input from standard input

     Current dimensions of program PWSCF are:
     Max number of different atomic species (ntypx) = 10
     Max number of k-points (npk) =  40000
     Max angular momentum in pseudopotentials (lmaxx) =  3
     Message from routine read_upf::
     Pseudo file ./pseudo/Mn.pbe-spn-kjpaw_psl.0.3.1.UPF has been successfully fixed on the fly.
To avoid this message in the future you can permanently fix
 your pseudo files following instructions given in:
               file Mn.pbe-spn-kjpaw_psl.0.3.1.UPF: wavefunction(s)  3P 3D renormalized
     Message from routine read_upf::
     Pseudo file ./pseudo/Mn.pbe-spn-kjpaw_psl.0.3.1.UPF has been successfully fixed on the fly.
To avoid this message in the future you can permanently fix
 your pseudo files following instructions given in:
               file Mn.pbe-spn-kjpaw_psl.0.3.1.UPF: wavefunction(s)  3P 3D renormalized
     Message from routine read_upf::
     Pseudo file ./pseudo/Au.pbe-dn-kjpaw_psl.0.1.UPF has been successfully fixed on the fly.
To avoid this message in the future you can permanently fix
 your pseudo files following instructions given in:
               file Au.pbe-dn-kjpaw_psl.0.1.UPF: wavefunction(s)  6S 6P 5D renormalized

     bravais-lattice index     =            0
     lattice parameter (alat)  =       6.4153  a.u.
     unit-cell volume          =    2762.7331 (a.u.)^3
     number of atoms/cell      =           24
     number of atomic types    =            3
     number of electrons       =       296.00
     number of Kohn-Sham states=          178
     kinetic-energy cutoff     =      45.0000  Ry
     charge density cutoff     =     400.0000  Ry
     convergence threshold     =      1.0E-06
     mixing beta               =       0.1000
     number of iterations used =            8  plain     mixing
     Exchange-correlation      = SLA PW PBX PBC ( 1  4  3  4 0 0)

     celldm(1)=   6.415315  celldm(2)=   0.000000  celldm(3)=   0.000000
     celldm(4)=   0.000000  celldm(5)=   0.000000  celldm(6)=   0.000000

     crystal axes: (cart. coord. in units of alat)
               a(1) = (   1.000000   0.000000   0.000000 )
               a(2) = (   0.000000   1.000000   0.000000 )
               a(3) = (   0.000000   0.000000  10.463692 )

     reciprocal axes: (cart. coord. in units 2 pi/alat)
               b(1) = (  1.000000  0.000000  0.000000 )
               b(2) = (  0.000000  1.000000  0.000000 )
               b(3) = (  0.000000  0.000000  0.095569 )

     PseudoPot. # 1 for Mn read from file:
     ./pseudo/Mn.pbe-spn-kjpaw_psl.0.3.1.UPF
     MD5 check sum: 7eef95dd2aae66803482eea66ebeebf1
     Pseudo is Projector augmented-wave + core cor, Zval = 15.0
     Generated using "atomic" code by A. Dal Corso v.5.0.99 svn rev. 10869
     Shape of augmentation charge: PSQ
     Using radial grid of 1187 points,  6 beta functions with:
                l(1) =   0
                l(2) =   0
                l(3) =   1
                l(4) =   1
                l(5) =   2
                l(6) =   2
     Q(r) pseudized with 0 coefficients

     PseudoPot. # 2 for Mn read from file:
     ./pseudo/Mn.pbe-spn-kjpaw_psl.0.3.1.UPF
     MD5 check sum: 7eef95dd2aae66803482eea66ebeebf1
     Pseudo is Projector augmented-wave + core cor, Zval = 15.0
     Generated using "atomic" code by A. Dal Corso v.5.0.99 svn rev. 10869
     Shape of augmentation charge: PSQ
     Using radial grid of 1187 points,  6 beta functions with:
                l(1) =   0
                l(2) =   0
                l(3) =   1
                l(4) =   1
                l(5) =   2
                l(6) =   2
     Q(r) pseudized with 0 coefficients

     PseudoPot. # 3 for Au read from file:
     ./pseudo/Au.pbe-dn-kjpaw_psl.0.1.UPF
     MD5 check sum: 5c9b92683623e7ae2ab3f8e525febab6
     Pseudo is Projector augmented-wave + core cor, Zval = 11.0
     Generated using "atomic" code by A. Dal Corso v.5.0.2 svn rev. 9415
     Shape of augmentation charge: PSQ
     Using radial grid of 1279 points,  6 beta functions with:
                l(1) =   0
                l(2) =   0
                l(3) =   1
                l(4) =   1
                l(5) =   2
                l(6) =   2
     Q(r) pseudized with 0 coefficients

     atomic species   valence    mass     pseudopotential
        Mn1           15.00    54.93800     Mn( 1.00)
        Mn2           15.00    54.93800     Mn( 1.00)
        Au            11.00   196.96600     Au( 1.00)

     Starting magnetic structure
     atomic species   magnetization
        Mn1          0.800
        Mn2         -0.800
        Au           0.000

     Full LDA+U calculation (l_max = 2) with parameters (eV):
     U(  1) =   3.1200   J(  1) =   0.7000   B(  1) =   0.0803
     U(  2) =   3.1200   J(  2) =   0.7000   B(  2) =   0.0803

      8 Sym. Ops. (no inversion) found

   Cartesian axes

     site n.     atom                  positions (alat units)
         1           Mn1 tau(   1) = (   0.0000000   0.0000000   0.0000000  )
         2           Mn1 tau(   2) = (   0.5000000   0.5000000   1.3079615  )
         3           Mn1 tau(   3) = (   0.0000000   0.0000000   2.6159231  )
         4           Mn1 tau(   4) = (   0.5000000   0.5000000   3.9238846  )
         5           Mn2 tau(   5) = (   0.0000000   0.0000000   5.2318461  )
         6           Mn2 tau(   6) = (   0.5000000   0.5000000   6.5398077  )
         7           Mn2 tau(   7) = (   0.0000000   0.0000000   7.8477692  )
         8           Mn2 tau(   8) = (   0.5000000   0.5000000   9.1557307  )
         9           Au  tau(   9) = (   0.5000000   0.5000000   0.4185477  )
        10           Au  tau(  10) = (   0.0000000   0.0000000   0.8894138  )
        11           Au  tau(  11) = (   0.0000000   0.0000000   1.7265092  )
        12           Au  tau(  12) = (   0.5000000   0.5000000   2.1973754  )
        13           Au  tau(  13) = (   0.5000000   0.5000000   3.0344708  )
        14           Au  tau(  14) = (   0.0000000   0.0000000   3.5053369  )
        15           Au  tau(  15) = (   0.0000000   0.0000000   4.3424323  )
        16           Au  tau(  16) = (   0.5000000   0.5000000   4.8132984  )
        17           Au  tau(  17) = (   0.5000000   0.5000000   5.6503938  )
        18           Au  tau(  18) = (   0.0000000   0.0000000   6.1212600  )
        19           Au  tau(  19) = (   0.0000000   0.0000000   6.9583554  )
        20           Au  tau(  20) = (   0.5000000   0.5000000   7.4292215  )
        21           Au  tau(  21) = (   0.5000000   0.5000000   8.2663169  )
        22           Au  tau(  22) = (   0.0000000   0.0000000   8.7371830  )
        23           Au  tau(  23) = (   0.0000000   0.0000000   9.5742784  )
        24           Au  tau(  24) = (   0.5000000   0.5000000  10.0451446  )

     number of k points=    40 (tetrahedron method)
                       cart. coord. in units 2pi/alat
        k(    1) = (   0.0000000   0.0000000   0.0000000), wk =   0.0046296
        k(    2) = (   0.0000000   0.0000000   0.0159281), wk =   0.0092593
        k(    3) = (   0.0000000   0.0000000   0.0318562), wk =   0.0092593
        k(    4) = (   0.0000000   0.0000000  -0.0477843), wk =   0.0046296
        k(    5) = (   0.0000000   0.1666667   0.0000000), wk =   0.0185185
        k(    6) = (   0.0000000   0.1666667   0.0159281), wk =   0.0370370
        k(    7) = (   0.0000000   0.1666667   0.0318562), wk =   0.0370370
        k(    8) = (   0.0000000   0.1666667  -0.0477843), wk =   0.0185185
        k(    9) = (   0.0000000   0.3333333   0.0000000), wk =   0.0185185
        k(   10) = (   0.0000000   0.3333333   0.0159281), wk =   0.0370370
        k(   11) = (   0.0000000   0.3333333   0.0318562), wk =   0.0370370
        k(   12) = (   0.0000000   0.3333333  -0.0477843), wk =   0.0185185
        k(   13) = (   0.0000000  -0.5000000   0.0000000), wk =   0.0092593
        k(   14) = (   0.0000000  -0.5000000   0.0159281), wk =   0.0185185
        k(   15) = (   0.0000000  -0.5000000   0.0318562), wk =   0.0185185
        k(   16) = (   0.0000000  -0.5000000  -0.0477843), wk =   0.0092593
        k(   17) = (   0.1666667   0.1666667   0.0000000), wk =   0.0185185
        k(   18) = (   0.1666667   0.1666667   0.0159281), wk =   0.0370370
        k(   19) = (   0.1666667   0.1666667   0.0318562), wk =   0.0370370
        k(   20) = (   0.1666667   0.1666667  -0.0477843), wk =   0.0185185
        k(   21) = (   0.1666667   0.3333333   0.0000000), wk =   0.0370370
        k(   22) = (   0.1666667   0.3333333   0.0159281), wk =   0.0740741
        k(   23) = (   0.1666667   0.3333333   0.0318562), wk =   0.0740741
        k(   24) = (   0.1666667   0.3333333  -0.0477843), wk =   0.0370370
        k(   25) = (   0.1666667  -0.5000000   0.0000000), wk =   0.0185185
        k(   26) = (   0.1666667  -0.5000000   0.0159281), wk =   0.0370370
        k(   27) = (   0.1666667  -0.5000000   0.0318562), wk =   0.0370370
        k(   28) = (   0.1666667  -0.5000000  -0.0477843), wk =   0.0185185
        k(   29) = (   0.3333333   0.3333333   0.0000000), wk =   0.0185185
        k(   30) = (   0.3333333   0.3333333   0.0159281), wk =   0.0370370
        k(   31) = (   0.3333333   0.3333333   0.0318562), wk =   0.0370370
        k(   32) = (   0.3333333   0.3333333  -0.0477843), wk =   0.0185185
        k(   33) = (   0.3333333  -0.5000000   0.0000000), wk =   0.0185185
        k(   34) = (   0.3333333  -0.5000000   0.0159281), wk =   0.0370370
        k(   35) = (   0.3333333  -0.5000000   0.0318562), wk =   0.0370370
        k(   36) = (   0.3333333  -0.5000000  -0.0477843), wk =   0.0185185
        k(   37) = (  -0.5000000  -0.5000000   0.0000000), wk =   0.0046296
        k(   38) = (  -0.5000000  -0.5000000   0.0159281), wk =   0.0092593
        k(   39) = (  -0.5000000  -0.5000000   0.0318562), wk =   0.0092593
        k(   40) = (  -0.5000000  -0.5000000  -0.0477843), wk =   0.0046296

     Check: negative/imaginary core charge=   -0.000006    0.000000

     Initial potential from superposition of free atoms

     starting charge  295.99426, renormalised to  296.00000
     Number of +U iterations with fixed ns =  0
     Starting occupations:
 --- enter write_ns ---
 LDA+U parameters:
U(  1) =   3.1200   J(  1) =   0.7000   B(  1) =   0.0803
U(  2) =   3.1200   J(  2) =   0.7000   B(  2) =   0.0803
atom    1   Tr[ns(na)] (up, down, total) =   5.00000  0.00000  5.00000
   spin  1
    eigenvalues:
  1.000  1.000  1.000  1.000  1.000
    eigenvectors:
  1.000  0.000  0.000  0.000  0.000
  0.000  1.000  0.000  0.000  0.000
  0.000  0.000  1.000  0.000  0.000
  0.000  0.000  0.000  1.000  0.000
  0.000  0.000  0.000  0.000  1.000
    occupations:
  1.000  0.000  0.000  0.000  0.000
  0.000  1.000  0.000  0.000  0.000
  0.000  0.000  1.000  0.000  0.000
  0.000  0.000  0.000  1.000  0.000
  0.000  0.000  0.000  0.000  1.000
   spin  2
    eigenvalues:
  0.000  0.000  0.000  0.000  0.000
    eigenvectors:
  1.000  0.000  0.000  0.000  0.000
[...]
 -0.000  0.080 -0.000  0.000  0.000
 -0.000 -0.000  0.080  0.000  0.000
  0.000  0.000  0.000  0.051 -0.000
  0.000  0.000  0.000 -0.000  0.115
   spin  2
    eigenvalues:
  1.003  1.003  1.003  1.004  1.004
    eigenvectors:
  0.000  0.000  0.000  1.000  0.000
  0.000  0.321  0.679  0.000  0.000
  0.000  0.679  0.321  0.000  0.000
  0.000  0.000  0.000  0.000  1.000
  1.000  0.000  0.000  0.000  0.000
    occupations:
  1.004 -0.000 -0.000  0.000  0.000
 -0.000  1.003 -0.000  0.000  0.000
 -0.000 -0.000  1.003  0.000  0.000
  0.000  0.000  0.000  1.004 -0.000
  0.000  0.000  0.000 -0.000  1.003
atomic mag. moment =    -4.621598
N of occupied +U levels =   43.279537
 --- exit write_ns ---

     total energy              =  -14687.29997102 Ry
     Harris-Foulkes estimate   =  -14685.83991484 Ry
     estimated scf accuracy    <      11.48578938 Ry

     total magnetization       =     0.00 Bohr mag/cell
     absolute magnetization    =    41.76 Bohr mag/cell

     iteration #  2     ecut=    45.00 Ry     beta= 0.10
     Davidson diagonalization with overlap
     ethr =  3.88E-03,  avg # of iterations =  1.0

[...]

     iteration # 13     ecut=    45.00 Ry     beta= 0.10
     Davidson diagonalization with overlap
     c_bands:  2 eigenvalues not converged
     c_bands:  3 eigenvalues not converged
     c_bands:  1 eigenvalues not converged
     c_bands:  5 eigenvalues not converged
     ethr =  3.54E-06,  avg # of iterations =  7.0

[...]

     total energy              =  -14694.02249267 Ry
     Harris-Foulkes estimate   =  -14694.02249184 Ry
     estimated scf accuracy    <       0.00000435 Ry

[...]

     iteration # 29     ecut=    45.00 Ry     beta= 0.10
     Davidson diagonalization with overlap
     ethr =  6.38E-10,  avg # of iterations =  1.6

     Magnetic moment per site:
     atom:    1    charge:   13.5493    magn:    4.2442    constr:    0.0000
     atom:    2    charge:   13.5532    magn:    4.2179    constr:    0.0000
     atom:    3    charge:   13.5531    magn:    4.2177    constr:    0.0000
     atom:    4    charge:   13.5493    magn:    4.2441    constr:    0.0000
     atom:    5    charge:   13.5492    magn:   -4.2441    constr:    0.0000
     atom:    6    charge:   13.5533    magn:   -4.2178    constr:    0.0000
     atom:    7    charge:   13.5531    magn:   -4.2178    constr:    0.0000
     atom:    8    charge:   13.5495    magn:   -4.2442    constr:    0.0000
     atom:    9    charge:    9.1372    magn:    0.0309    constr:    0.0000
     atom:   10    charge:    9.1366    magn:    0.0303    constr:    0.0000
     atom:   11    charge:    9.1357    magn:    0.0313    constr:    0.0000
     atom:   12    charge:    9.1353    magn:    0.0314    constr:    0.0000
     atom:   13    charge:    9.1361    magn:    0.0303    constr:    0.0000
     atom:   14    charge:    9.1375    magn:    0.0306    constr:    0.0000
     atom:   15    charge:    9.1390    magn:    0.0380    constr:    0.0000
     atom:   16    charge:    9.1386    magn:   -0.0380    constr:    0.0000
     atom:   17    charge:    9.1371    magn:   -0.0306    constr:    0.0000
     atom:   18    charge:    9.1365    magn:   -0.0303    constr:    0.0000
     atom:   19    charge:    9.1357    magn:   -0.0314    constr:    0.0000
     atom:   20    charge:    9.1354    magn:   -0.0313    constr:    0.0000
     atom:   21    charge:    9.1362    magn:   -0.0303    constr:    0.0000
     atom:   22    charge:    9.1377    magn:   -0.0309    constr:    0.0000
     atom:   23    charge:    9.1388    magn:   -0.0382    constr:    0.0000
     atom:   24    charge:    9.1384    magn:    0.0382    constr:    0.0000

     End of self-consistent calculation
 --- enter write_ns ---
 LDA+U parameters:
U(  1) =   3.1200   J(  1) =   0.7000   B(  1) =   0.0803
U(  2) =   3.1200   J(  2) =   0.7000   B(  2) =   0.0803
atom    1   Tr[ns(na)] (up, down, total) =   4.97337  0.72927  5.70264
   spin  1
    eigenvalues:
  0.985  0.994  0.994  0.998  1.002
    eigenvectors:
  0.000  0.000  0.000  1.000  0.000
  0.000  0.341  0.659  0.000  0.000
  0.000  0.659  0.341  0.000  0.000
  0.000  0.000  0.000  0.000  1.000
  1.000  0.000  0.000  0.000  0.000
    occupations:
  0.998 -0.000 -0.000  0.000  0.000
 -0.000  0.994 -0.000  0.000  0.000
 -0.000 -0.000  0.994  0.000  0.000
  0.000  0.000  0.000  1.002 -0.000
  0.000  0.000  0.000 -0.000  0.985
   spin  2
    eigenvalues:
  0.064  0.125  0.141  0.141  0.258
    eigenvectors:
  0.000  1.000  0.000  0.000  0.000
  0.000  0.000  0.325  0.675  0.000
  0.000  0.000  0.675  0.325  0.000
  1.000  0.000  0.000  0.000  0.000
  0.000  0.000  0.000  0.000  1.000
    occupations:
  0.125 -0.000 -0.000  0.000  0.000
 -0.000  0.141 -0.000  0.000  0.000
 -0.000 -0.000  0.141  0.000  0.000
  0.000  0.000  0.000  0.064 -0.000
  0.000  0.000  0.000 -0.000  0.258
atomic mag. moment =     4.244091
atom    2   Tr[ns(na)] (up, down, total) =   4.97242  0.75127  5.72369
   spin  1
    eigenvalues:
  0.985  0.994  0.994  0.998  1.002
    eigenvectors:
  0.000  0.000  0.000  1.000  0.000
  0.000  0.235  0.765  0.000  0.000
  0.000  0.765  0.235  0.000  0.000
  0.000  0.000  0.000  0.000  1.000
  1.000  0.000  0.000  0.000  0.000
    occupations:
  0.998 -0.000 -0.000  0.000  0.000
 -0.000  0.994 -0.000  0.000  0.000
 -0.000 -0.000  0.994  0.000  0.000
  0.000  0.000  0.000  1.002 -0.000
  0.000  0.000  0.000 -0.000  0.985
   spin  2
    eigenvalues:
  0.064  0.135  0.143  0.143  0.267
    eigenvectors:
  0.000  1.000  0.000  0.000  0.000
  0.000  0.000  0.278  0.722  0.000
  0.000  0.000  0.722  0.278  0.000
  1.000  0.000  0.000  0.000  0.000
  0.000  0.000  0.000  0.000  1.000
    occupations:
  0.135 -0.000 -0.000  0.000  0.000
 -0.000  0.143 -0.000  0.000  0.000
 -0.000 -0.000  0.143  0.000  0.000
  0.000  0.000  0.000  0.064 -0.000
  0.000  0.000  0.000 -0.000  0.267
atomic mag. moment =     4.221144
atom    3   Tr[ns(na)] (up, down, total) =   4.97229  0.75164  5.72393
   spin  1
    eigenvalues:
  0.985  0.994  0.994  0.998  1.002
    eigenvectors:
  0.000  0.000  0.000  1.000  0.000
  0.000  0.329  0.671  0.000  0.000
  0.000  0.671  0.329  0.000  0.000
  0.000  0.000  0.000  0.000  1.000
  1.000  0.000  0.000  0.000  0.000
    occupations:
  0.998 -0.000 -0.000  0.000  0.000
 -0.000  0.994 -0.000  0.000  0.000
 -0.000 -0.000  0.994  0.000  0.000
  0.000  0.000  0.000  1.002 -0.000
  0.000  0.000  0.000 -0.000  0.985
   spin  2
    eigenvalues:
  0.064  0.135  0.142  0.142  0.269
    eigenvectors:
  0.000  1.000  0.000  0.000  0.000
  0.000  0.000  0.300  0.700  0.000
  0.000  0.000  0.700  0.300  0.000
  1.000  0.000  0.000  0.000  0.000
  0.000  0.000  0.000  0.000  1.000
    occupations:
  0.135 -0.000 -0.000  0.000  0.000
 -0.000  0.142 -0.000  0.000  0.000
 -0.000 -0.000  0.142  0.000  0.000
  0.000  0.000  0.000  0.064 -0.000
  0.000  0.000  0.000 -0.000  0.269
atomic mag. moment =     4.220656
atom    4   Tr[ns(na)] (up, down, total) =   4.97339  0.72898  5.70237
   spin  1
    eigenvalues:
  0.985  0.994  0.994  0.998  1.002
    eigenvectors:
  0.000  0.000  0.000  1.000  0.000
  0.000  0.405  0.595  0.000  0.000
  0.000  0.595  0.405  0.000  0.000
  0.000  0.000  0.000  0.000  1.000
  1.000  0.000  0.000  0.000  0.000
    occupations:
  0.998 -0.000 -0.000  0.000  0.000
 -0.000  0.994 -0.000  0.000  0.000
 -0.000 -0.000  0.994  0.000  0.000
  0.000  0.000  0.000  1.002 -0.000
  0.000  0.000  0.000 -0.000  0.985
   spin  2
    eigenvalues:
  0.064  0.125  0.142  0.142  0.256
    eigenvectors:
  0.000  1.000  0.000  0.000  0.000
  0.000  0.000  0.291  0.709  0.000
  0.000  0.000  0.709  0.291  0.000
  1.000  0.000  0.000  0.000  0.000
  0.000  0.000  0.000  0.000  1.000
    occupations:
  0.125 -0.000 -0.000  0.000  0.000
 -0.000  0.142 -0.000  0.000  0.000
 -0.000 -0.000  0.142  0.000  0.000
  0.000  0.000  0.000  0.064 -0.000
  0.000  0.000  0.000 -0.000  0.256
atomic mag. moment =     4.244408
atom    5   Tr[ns(na)] (up, down, total) =   0.72901  4.97339  5.70240
   spin  1
    eigenvalues:
  0.064  0.125  0.142  0.142  0.256
    eigenvectors:
  0.000  1.000  0.000  0.000  0.000
  0.000  0.000  0.327  0.673  0.000
  0.000  0.000  0.673  0.327  0.000
  1.000  0.000  0.000  0.000  0.000
  0.000  0.000  0.000  0.000  1.000
    occupations:
  0.125 -0.000 -0.000  0.000  0.000
 -0.000  0.142 -0.000  0.000  0.000
 -0.000 -0.000  0.142  0.000  0.000
  0.000  0.000  0.000  0.064 -0.000
  0.000  0.000  0.000 -0.000  0.256
   spin  2
    eigenvalues:
  0.985  0.994  0.994  0.998  1.002
    eigenvectors:
  0.000  0.000  0.000  1.000  0.000
  0.000  0.285  0.715  0.000  0.000
  0.000  0.715  0.285  0.000  0.000
  0.000  0.000  0.000  0.000  1.000
  1.000  0.000  0.000  0.000  0.000
    occupations:
  0.998 -0.000 -0.000  0.000  0.000
 -0.000  0.994 -0.000  0.000  0.000
 -0.000 -0.000  0.994  0.000  0.000
  0.000  0.000  0.000  1.002 -0.000
  0.000  0.000  0.000 -0.000  0.985
atomic mag. moment =    -4.244375
atom    6   Tr[ns(na)] (up, down, total) =   0.75165  4.97231  5.72396
   spin  1
    eigenvalues:
  0.064  0.135  0.142  0.142  0.269
    eigenvectors:
  0.000  1.000  0.000  0.000  0.000
  0.000  0.000  0.318  0.682  0.000
  0.000  0.000  0.682  0.318  0.000
  1.000  0.000  0.000  0.000  0.000
  0.000  0.000  0.000  0.000  1.000
    occupations:
  0.135 -0.000 -0.000  0.000  0.000
 -0.000  0.142 -0.000  0.000  0.000
 -0.000 -0.000  0.142  0.000  0.000
  0.000  0.000  0.000  0.064 -0.000
  0.000  0.000  0.000 -0.000  0.269
   spin  2
    eigenvalues:
  0.985  0.994  0.994  0.998  1.002
    eigenvectors:
  0.000  0.000  0.000  1.000  0.000
  0.000  0.250  0.750  0.000  0.000
  0.000  0.750  0.250  0.000  0.000
  0.000  0.000  0.000  0.000  1.000
  1.000  0.000  0.000  0.000  0.000
    occupations:
  0.998 -0.000 -0.000  0.000  0.000
 -0.000  0.994 -0.000  0.000  0.000
 -0.000 -0.000  0.994  0.000  0.000
  0.000  0.000  0.000  1.002 -0.000
  0.000  0.000  0.000 -0.000  0.985
atomic mag. moment =    -4.220654
atom    7   Tr[ns(na)] (up, down, total) =   0.75134  4.97241  5.72375
   spin  1
    eigenvalues:
  0.064  0.135  0.143  0.143  0.267
    eigenvectors:
  0.000  1.000  0.000  0.000  0.000
  0.000  0.000  0.309  0.691  0.000
  0.000  0.000  0.691  0.309  0.000
  1.000  0.000  0.000  0.000  0.000
  0.000  0.000  0.000  0.000  1.000
    occupations:
  0.135 -0.000 -0.000  0.000  0.000
 -0.000  0.143 -0.000  0.000  0.000
 -0.000 -0.000  0.143  0.000  0.000
  0.000  0.000  0.000  0.064 -0.000
  0.000  0.000  0.000 -0.000  0.267
   spin  2
    eigenvalues:
  0.985  0.994  0.994  0.998  1.002
    eigenvectors:
  0.000  0.000  0.000  1.000  0.000
  0.000  0.324  0.676  0.000  0.000
  0.000  0.676  0.324  0.000  0.000
  0.000  0.000  0.000  0.000  1.000
  1.000  0.000  0.000  0.000  0.000
    occupations:
  0.998 -0.000 -0.000  0.000  0.000
 -0.000  0.994 -0.000  0.000  0.000
 -0.000 -0.000  0.994  0.000  0.000
  0.000  0.000  0.000  1.002 -0.000
  0.000  0.000  0.000 -0.000  0.985
atomic mag. moment =    -4.221074
atom    8   Tr[ns(na)] (up, down, total) =   0.72927  4.97337  5.70264
   spin  1
    eigenvalues:
  0.064  0.125  0.141  0.141  0.258
    eigenvectors:
  0.000  1.000  0.000  0.000  0.000
  0.000  0.000  0.389  0.611  0.000
  0.000  0.000  0.611  0.389  0.000
  1.000  0.000  0.000  0.000  0.000
  0.000  0.000  0.000  0.000  1.000
    occupations:
  0.125 -0.000 -0.000  0.000  0.000
 -0.000  0.141 -0.000  0.000  0.000
 -0.000 -0.000  0.141  0.000  0.000
  0.000  0.000  0.000  0.064 -0.000
  0.000  0.000  0.000 -0.000  0.258
   spin  2
    eigenvalues:
  0.985  0.994  0.994  0.998  1.002
    eigenvectors:
  0.000  0.000  0.000  1.000  0.000
  0.000  0.287  0.713  0.000  0.000
  0.000  0.713  0.287  0.000  0.000
  0.000  0.000  0.000  0.000  1.000
  1.000  0.000  0.000  0.000  0.000
    occupations:
  0.998 -0.000 -0.000  0.000  0.000
 -0.000  0.994 -0.000  0.000  0.000
 -0.000 -0.000  0.994  0.000  0.000
  0.000  0.000  0.000  1.002 -0.000
  0.000  0.000  0.000 -0.000  0.985
atomic mag. moment =    -4.244104
N of occupied +U levels =   45.705388
 --- exit write_ns ---

 ------ SPIN UP ------------

          k = 0.0000 0.0000 0.0000 ( 14071 PWs)   bands (ev):

   -67.0337 -67.0312 -66.9190 -66.9177 -62.4379 -62.4357 -62.3456 -62.3450
   -35.8091 -35.8083 -35.7470 -35.7470 -35.7437 -35.7437 -35.7007 -35.7002
   -35.6315 -35.6315 -35.6293 -35.6293 -31.2623 -31.2602 -31.2561 -31.2561
   -31.2539 -31.2539 -31.1765 -31.1759 -31.1627 -31.1627 -31.1621 -31.1621
     5.5918   5.7366   5.8319   6.1916   6.2182   6.8311   6.8634   7.3959
     8.0775   8.1746   8.1958   8.2635   8.3281   8.4599   8.5186   8.6091
     8.6536   8.7269   8.8137   8.8802   8.9736   9.0030   9.0042   9.0712
     9.1073   9.1547   9.2206   9.3789   9.3825   9.4113   9.7015   9.7549
     9.7657   9.7939   9.9250   9.9313   9.9313   9.9671   9.9671  10.0079
    10.0079  10.0351  10.1410  10.1444  10.1444  10.1480  10.1492  10.1492
    10.1857  10.2799  10.3073  10.3073  10.3304  10.3304  10.3460  10.3714
    10.3714  10.3900  10.3900  10.4090  10.4580  10.4580  10.4658  10.4910
    10.4910  10.5577  10.5833  10.6856  10.7414  10.7414  10.7783  10.8661
    10.8661  10.8799  10.9678  10.9910  11.0112  11.1424  11.2002  11.2002
    11.2704  11.2704  11.3111  11.3155  11.3885  11.5534  11.5689  11.5689
    11.6346  11.6722  11.6722  11.7101  11.7119  11.7533  11.8367  11.8421
    11.8421  11.9032  11.9090  11.9723  12.1583  12.1583  12.2539  12.4570
    12.4570  12.4647  12.5187  12.6455  12.7073  12.7829  12.7862  13.3287
    13.5235  14.2844  14.7202  15.8143  16.5266  16.5266  16.6015  16.6015
    16.6893  16.6948  16.7671  16.7762  16.7762  16.8150  16.8385  16.8465
    16.8940  16.9353  16.9884  16.9884  17.0436  17.1985  17.2603  17.2804
    17.9965  19.1267  19.3047  19.8891  19.8891  20.2593  20.2593  20.3673
    20.3673  21.0300

[...]

          k =-0.5000-0.5000 0.0000 ( 14124 PWs)   bands (ev):

[...]

 ------ SPIN DOWN ----------

[...]

          k = 0.3333-0.5000-0.0478 ( 14140 PWs)   bands (ev):

[...]

          k =-0.5000-0.5000-0.0478 ( 14176 PWs)   bands (ev):

   -67.0323 -67.0300 -66.9176 -66.9166 -62.4364 -62.4344 -62.3442 -62.3435
   -35.8076 -35.8065 -35.7575 -35.7575 -35.7545 -35.7545 -35.6991 -35.6987
   -35.6420 -35.6420 -35.6403 -35.6403 -31.2695 -31.2695 -31.2675 -31.2675
   -31.2598 -31.2577 -31.1761 -31.1761 -31.1755 -31.1755 -31.1739 -31.1733
     7.8492   7.8513   8.0101   8.0124   8.2962   8.2969   8.4364   8.4378
     8.7018   8.7032   8.7753   8.7766   9.0535   9.0535   9.0651   9.0651
     9.1036   9.1045   9.1186   9.1201   9.1584   9.1584   9.1648   9.1648
     9.3495   9.3495   9.3546   9.3546   9.6149   9.6179   9.6342   9.6342
     9.6451   9.6451   9.6510   9.6510   9.6765   9.6765   9.7674   9.7674
     9.7792   9.7816   9.8587   9.8587  10.0438  10.0438  10.2003  10.2003
    10.3788  10.3793  10.4749  10.4754  10.6286  10.6286  10.6906  10.6906
    10.9040  10.9049  10.9716  10.9724  11.1265  11.1270  11.1896  11.1925
    11.2198  11.2198  11.2281  11.2281  11.2974  11.2992  11.3189  11.3196
    11.7022  11.7038  11.7243  11.7263  11.7493  11.7496  11.7670  11.7670
    11.7685  11.7689  11.7913  11.7920  11.8136  11.8147  11.8312  11.8316
    11.8532  11.8538  11.9506  11.9511  11.9818  11.9823  12.0025  12.0030
    12.1095  12.1097  12.3765  12.3765  13.1612  13.1623  13.2025  13.2048
    13.6761  13.6761  13.9287  13.9287  14.2926  14.2926  14.3331  14.3331
    14.5660  14.5660  15.1975  15.1975  16.0990  16.0990  16.3952  16.3976
    16.5369  16.5382  16.6181  16.6184  16.7557  16.7565  16.8048  16.8048
    17.1950  17.1950  17.3516  17.3516  17.4708  17.4711  17.5424  17.5430
    17.7047  17.7050  17.8305  17.8350  17.9253  17.9282  18.0720  18.0720
    18.2661  18.2661

     the Fermi energy is    15.0130 ev

!    total energy              =  -14694.02249216 Ry
     Harris-Foulkes estimate   =  -14694.02249016 Ry
     estimated scf accuracy    <       0.00000099 Ry

     total all-electron energy =   -626921.618214 Ry

     The total energy is the sum of the following terms:

     one-electron contribution =    -729.91633709 Ry
     hartree contribution      =     661.54949308 Ry
     xc contribution           =    -737.65497329 Ry
     ewald contribution        =   -2186.64874840 Ry
     Hubbard energy            =       0.44932595 Ry
     one-center paw contrib.   =  -11701.80125240 Ry

     total magnetization       =     0.00 Bohr mag/cell
     absolute magnetization    =    37.17 Bohr mag/cell

     convergence has been achieved in  29 iterations

     Writing output data file mnau2.save/

     General routines

     Parallel routines

     Hubbard U routines

   This run was terminated on:  18:17:32  29Mar2019

   JOB DONE.