     Program PWSCF v.6.2 (svn rev. 14038) starts on  7Mar2019 at 16: 8:10

     R & G space division:  proc/nbgrp/npool/nimage =      16
     Waiting for input...
     Reading input from standard input

     Current dimensions of program PWSCF are:
     Max number of different atomic species (ntypx) = 10
     Max number of k-points (npk) =  40000
     Max angular momentum in pseudopotentials (lmaxx) =  3
               file Mn.pbe-spn-kjpaw_psl.0.3.1.UPF: wavefunction(s)  3P 3D renormalized
               file Mn.pbe-spn-kjpaw_psl.0.3.1.UPF: wavefunction(s)  3P 3D renormalized
               file Au.pbe-dn-kjpaw_psl.0.1.UPF: wavefunction(s)  6S 6P 5D renormalized

     Subspace diagonalization in iterative solution of the eigenvalue problem:
     a serial algorithm will be used

     bravais-lattice index     =            0
     lattice parameter (alat)  =      19.2459  a.u.
     unit-cell volume          =    6216.1497 (a.u.)^3
     number of atoms/cell      =           54
     number of atomic types    =            3
     number of electrons       =       666.00
     number of Kohn-Sham states=          400
     kinetic-energy cutoff     =      45.0000  Ry
     charge density cutoff     =     400.0000  Ry
     convergence threshold     =      1.0E-06
     mixing beta               =       0.1000
     number of iterations used =            8  plain     mixing
     Exchange-correlation      = SLA PW PBX PBC ( 1  4  3  4 0 0)

     celldm(1)=  19.245946  celldm(2)=   0.000000  celldm(3)=   0.000000
     celldm(4)=   0.000000  celldm(5)=   0.000000  celldm(6)=   0.000000

     crystal axes: (cart. coord. in units of alat)
               a(1) = (   1.000000   0.000000   0.000000 )
               a(2) = (   0.000000   1.000000   0.000000 )
               a(3) = (   0.000000   0.000000   0.871974 )

     reciprocal axes: (cart. coord. in units 2 pi/alat)
               b(1) = (  1.000000  0.000000  0.000000 )
               b(2) = (  0.000000  1.000000  0.000000 )
               b(3) = (  0.000000  0.000000  1.146823 )

     PseudoPot. # 1 for Mn read from file:
     ./pseudo/Mn.pbe-spn-kjpaw_psl.0.3.1.UPF
     MD5 check sum: 7eef95dd2aae66803482eea66ebeebf1
     Pseudo is Projector augmented-wave + core cor, Zval = 15.0
     Generated using "atomic" code by A. Dal Corso v.5.0.99 svn rev. 10869
     Shape of augmentation charge: PSQ
     Using radial grid of 1187 points,  6 beta functions with:
                l(1) =   0
                l(2) =   0
                l(3) =   1
                l(4) =   1
                l(5) =   2
                l(6) =   2
     Q(r) pseudized with 0 coefficients

     PseudoPot. # 2 for Mn read from file:
     ./pseudo/Mn.pbe-spn-kjpaw_psl.0.3.1.UPF
     MD5 check sum: 7eef95dd2aae66803482eea66ebeebf1
     Pseudo is Projector augmented-wave + core cor, Zval = 15.0
     Generated using "atomic" code by A. Dal Corso v.5.0.99 svn rev. 10869
     Shape of augmentation charge: PSQ
     Using radial grid of 1187 points,  6 beta functions with:
                l(1) =   0
                l(2) =   0
                l(3) =   1
                l(4) =   1
                l(5) =   2
                l(6) =   2
     Q(r) pseudized with 0 coefficients

     PseudoPot. # 3 for Au read from file:
     ./pseudo/Au.pbe-dn-kjpaw_psl.0.1.UPF
     MD5 check sum: 5c9b92683623e7ae2ab3f8e525febab6
     Pseudo is Projector augmented-wave + core cor, Zval = 11.0
     Generated using "atomic" code by A. Dal Corso v.5.0.2 svn rev. 9415
     Shape of augmentation charge: PSQ
     Using radial grid of 1279 points,  6 beta functions with:
                l(1) =   0
                l(2) =   0
                l(3) =   1
                l(4) =   1
                l(5) =   2
                l(6) =   2
     Q(r) pseudized with 0 coefficients

     atomic species   valence    mass     pseudopotential
        Mn1           15.00    54.93800     Mn( 1.00)
        Mn2           15.00    54.93800     Mn( 1.00)
        Au            11.00   196.96600     Au( 1.00)

     Starting magnetic structure
     atomic species   magnetization
        Mn1          0.800
        Mn2         -0.800
        Au           0.000

      2 Sym. Ops. (no inversion) found

   Cartesian axes

     site n.     atom                  positions (alat units)
         1           Mn1 tau(   1) = (   0.0000000   0.0000000   0.0000000  )
         2           Mn1 tau(   2) = (   0.0000000   0.3333300   0.0000000  )
         3           Mn2 tau(   3) = (   0.0000000   0.6666700   0.0000000  )
         4           Mn2 tau(   4) = (   0.3333300   0.0000000   0.0000000  )
         5           Mn2 tau(   5) = (   0.3333300   0.3333300   0.0000000  )
         6           Mn2 tau(   6) = (   0.3333300   0.6666700   0.0000000  )
         7           Mn2 tau(   7) = (   0.6666700   0.0000000   0.0000000  )
         8           Mn1 tau(   8) = (   0.6666700   0.3333300   0.0000000  )
         9           Mn2 tau(   9) = (   0.6666700   0.6666700   0.0000000  )
        10           Mn2 tau(  10) = (   0.1666700   0.1666700   0.4359871  )
        11           Mn2 tau(  11) = (   0.1666700   0.5000000   0.4359871  )
        12           Mn1 tau(  12) = (   0.1666700   0.8333300   0.4359871  )
        13           Mn1 tau(  13) = (   0.5000000   0.1666700   0.4359871  )
        14           Mn1 tau(  14) = (   0.5000000   0.5000000   0.4359871  )
        15           Mn1 tau(  15) = (   0.5000000   0.8333300   0.4359871  )
        16           Mn1 tau(  16) = (   0.8333300   0.1666700   0.4359871  )
        17           Mn2 tau(  17) = (   0.8333300   0.5000000   0.4359871  )
        18           Mn1 tau(  18) = (   0.8333300   0.8333300   0.4359871  )
        19           Au  tau(  19) = (   0.1666700   0.1666700   0.7327374  )
        20           Au  tau(  20) = (   0.1666700   0.5000000   0.7327374  )
        21           Au  tau(  21) = (   0.1666700   0.8333300   0.7327374  )
        22           Au  tau(  22) = (   0.5000000   0.1666700   0.7327374  )
        23           Au  tau(  23) = (   0.5000000   0.5000000   0.7327374  )
        24           Au  tau(  24) = (   0.5000000   0.8333300   0.7327374  )
        25           Au  tau(  25) = (   0.8333300   0.1666700   0.7327374  )
        26           Au  tau(  26) = (   0.8333300   0.5000000   0.7327374  )
        27           Au  tau(  27) = (   0.8333300   0.8333300   0.7327374  )
        28           Au  tau(  28) = (   0.1666700   0.1666700   0.1392369  )
        29           Au  tau(  29) = (   0.1666700   0.5000000   0.1392369  )
        30           Au  tau(  30) = (   0.1666700   0.8333300   0.1392369  )
        31           Au  tau(  31) = (   0.5000000   0.1666700   0.1392369  )
        32           Au  tau(  32) = (   0.5000000   0.5000000   0.1392369  )
        33           Au  tau(  33) = (   0.5000000   0.8333300   0.1392369  )
        34           Au  tau(  34) = (   0.8333300   0.1666700   0.1392369  )
        35           Au  tau(  35) = (   0.8333300   0.5000000   0.1392369  )
        36           Au  tau(  36) = (   0.8333300   0.8333300   0.1392369  )
        37           Au  tau(  37) = (   0.0000000   0.0000000   0.2967503  )
        38           Au  tau(  38) = (   0.0000000   0.3333300   0.2967503  )
        39           Au  tau(  39) = (   0.0000000   0.6666700   0.2967503  )
        40           Au  tau(  40) = (   0.3333300   0.0000000   0.2967503  )
        41           Au  tau(  41) = (   0.3333300   0.3333300   0.2967503  )
        42           Au  tau(  42) = (   0.3333300   0.6666700   0.2967503  )
        43           Au  tau(  43) = (   0.6666700   0.0000000   0.2967503  )
        44           Au  tau(  44) = (   0.6666700   0.3333300   0.2967503  )
        45           Au  tau(  45) = (   0.6666700   0.6666700   0.2967503  )
        46           Au  tau(  46) = (   0.0000000   0.0000000   0.5752240  )
        47           Au  tau(  47) = (   0.0000000   0.3333300   0.5752240  )
        48           Au  tau(  48) = (   0.0000000   0.6666700   0.5752240  )
        49           Au  tau(  49) = (   0.3333300   0.0000000   0.5752240  )
        50           Au  tau(  50) = (   0.3333300   0.3333300   0.5752240  )
        51           Au  tau(  51) = (   0.3333300   0.6666700   0.5752240  )
        52           Au  tau(  52) = (   0.6666700   0.0000000   0.5752240  )
        53           Au  tau(  53) = (   0.6666700   0.3333300   0.5752240  )
        54           Au  tau(  54) = (   0.6666700   0.6666700   0.5752240  )

     number of k points=     8 (tetrahedron method)
                       cart. coord. in units 2pi/alat
        k(    1) = (   0.0000000   0.0000000   0.0000000), wk =   0.1250000
        k(    2) = (   0.0000000   0.0000000  -0.5734114), wk =   0.1250000
        k(    3) = (   0.0000000  -0.5000000   0.0000000), wk =   0.1250000
        k(    4) = (   0.0000000  -0.5000000  -0.5734114), wk =   0.1250000
        k(    5) = (  -0.5000000  -0.5000000   0.0000000), wk =   0.1250000
        k(    6) = (  -0.5000000  -0.5000000  -0.5734114), wk =   0.1250000
        k(    7) = (  -0.5000000   0.0000000   0.0000000), wk =   0.1250000
        k(    8) = (  -0.5000000   0.0000000   0.5734114), wk =   0.1250000

     Check: negative/imaginary core charge=   -0.000006    0.000000

     Initial potential from superposition of free atoms

     starting charge  665.98709, renormalised to  666.00000
     Starting wfc are  504 randomized atomic wfcs
     Checking if some PAW data can be deallocated...

     Self-consistent Calculation

     iteration #  1     ecut=    45.00 Ry     beta= 0.10
     Davidson diagonalization with overlap
     ethr =  1.00E-02,  avg # of iterations =  3.2

     total energy              =  -33047.18346405 Ry
     Harris-Foulkes estimate   =  -33044.02997208 Ry
     estimated scf accuracy    <      27.00575382 Ry

     total magnetization       =     0.04 Bohr mag/cell
     absolute magnetization    =    92.18 Bohr mag/cell

[...]

     total energy              =  -33062.58581711 Ry
     Harris-Foulkes estimate   =  -33062.58581266 Ry
     estimated scf accuracy    <       0.00000102 Ry

[...]

     iteration # 22     ecut=    45.00 Ry     beta= 0.10
     Davidson diagonalization with overlap
     ethr =  1.53E-10,  avg # of iterations =  2.8

     Magnetic moment per site:
     atom:    1    charge:   13.5758    magn:    4.0249    constr:    0.0000
     atom:    2    charge:   13.5698    magn:    4.0421    constr:    0.0000
     atom:    3    charge:   13.5805    magn:   -3.9613    constr:    0.0000
     atom:    4    charge:   13.5754    magn:   -4.0042    constr:    0.0000
     atom:    5    charge:   13.5804    magn:   -3.9612    constr:    0.0000
     atom:    6    charge:   13.5810    magn:   -3.9505    constr:    0.0000
     atom:    7    charge:   13.5690    magn:   -4.0677    constr:    0.0000
     atom:    8    charge:   13.5757    magn:    4.0248    constr:    0.0000
     atom:    9    charge:   13.5754    magn:   -4.0041    constr:    0.0000
     atom:   10    charge:   13.5753    magn:   -4.0450    constr:    0.0000
     atom:   11    charge:   13.5825    magn:   -3.9555    constr:    0.0000
     atom:   12    charge:   13.5725    magn:    4.0435    constr:    0.0000
     atom:   13    charge:   13.5777    magn:    3.9880    constr:    0.0000
     atom:   14    charge:   13.5723    magn:    4.0436    constr:    0.0000
     atom:   15    charge:   13.5713    magn:    4.0317    constr:    0.0000
     atom:   16    charge:   13.5805    magn:    3.9653    constr:    0.0000
     atom:   17    charge:   13.5752    magn:   -4.0450    constr:    0.0000
     atom:   18    charge:   13.5778    magn:    3.9880    constr:    0.0000
     atom:   19    charge:    9.1205    magn:   -0.0096    constr:    0.0000
     atom:   20    charge:    9.1198    magn:   -0.0423    constr:    0.0000
     atom:   21    charge:    9.1201    magn:   -0.0111    constr:    0.0000
     atom:   22    charge:    9.1204    magn:   -0.0185    constr:    0.0000
     atom:   23    charge:    9.1201    magn:   -0.0110    constr:    0.0000
     atom:   24    charge:    9.1207    magn:   -0.0446    constr:    0.0000
     atom:   25    charge:    9.1205    magn:    0.0372    constr:    0.0000
     atom:   26    charge:    9.1204    magn:   -0.0096    constr:    0.0000
     atom:   27    charge:    9.1204    magn:   -0.0185    constr:    0.0000
     atom:   28    charge:    9.1205    magn:   -0.0096    constr:    0.0000
     atom:   29    charge:    9.1198    magn:   -0.0423    constr:    0.0000
     atom:   30    charge:    9.1201    magn:   -0.0111    constr:    0.0000
     atom:   31    charge:    9.1204    magn:   -0.0185    constr:    0.0000
     atom:   32    charge:    9.1201    magn:   -0.0110    constr:    0.0000
     atom:   33    charge:    9.1207    magn:   -0.0446    constr:    0.0000
     atom:   34    charge:    9.1205    magn:    0.0372    constr:    0.0000
     atom:   35    charge:    9.1204    magn:   -0.0096    constr:    0.0000
     atom:   36    charge:    9.1204    magn:   -0.0185    constr:    0.0000
     atom:   37    charge:    9.1203    magn:    0.0424    constr:    0.0000
     atom:   38    charge:    9.1216    magn:   -0.0153    constr:    0.0000
     atom:   39    charge:    9.1196    magn:   -0.0034    constr:    0.0000
     atom:   40    charge:    9.1210    magn:    0.0159    constr:    0.0000
     atom:   41    charge:    9.1195    magn:   -0.0034    constr:    0.0000
     atom:   42    charge:    9.1216    magn:    0.0219    constr:    0.0000
     atom:   43    charge:    9.1201    magn:    0.0488    constr:    0.0000
     atom:   44    charge:    9.1201    magn:    0.0424    constr:    0.0000
     atom:   45    charge:    9.1209    magn:    0.0159    constr:    0.0000
     atom:   46    charge:    9.1203    magn:    0.0424    constr:    0.0000
     atom:   47    charge:    9.1216    magn:   -0.0153    constr:    0.0000
     atom:   48    charge:    9.1196    magn:   -0.0034    constr:    0.0000
     atom:   49    charge:    9.1210    magn:    0.0159    constr:    0.0000
     atom:   50    charge:    9.1195    magn:   -0.0034    constr:    0.0000
     atom:   51    charge:    9.1216    magn:    0.0219    constr:    0.0000
     atom:   52    charge:    9.1201    magn:    0.0488    constr:    0.0000
     atom:   53    charge:    9.1201    magn:    0.0424    constr:    0.0000
     atom:   54    charge:    9.1209    magn:    0.0159    constr:    0.0000

     End of self-consistent calculation

 ------ SPIN UP ------------

          k = 0.0000 0.0000 0.0000 ( 31747 PWs)   bands (ev):

   -66.7606 -66.7430 -66.7429 -66.7375 -66.6788 -66.6787 -66.6617 -66.6617
   -66.5991 -62.3973 -62.3930 -62.3930 -62.3683 -62.3682 -62.3511 -62.3290
   -62.3183 -62.3183 -35.5350 -35.5114 -35.5113 -35.5086 -35.5085 -35.5030
   -35.4992 -35.4771 -35.4741 -35.4602 -35.4574 -35.4572 -35.4376 -35.4375
   -35.4216 -35.4215 -35.4163 -35.4161 -35.4149 -35.4149 -35.3904 -35.3903
   -35.3832 -35.3825 -35.3767 -35.3319 -35.3203 -31.2490 -31.2487 -31.2330
   -31.2292 -31.2170 -31.2170 -31.2101 -31.2099 -31.2049 -31.1942 -31.1940
   -31.1939 -31.1915 -31.1868 -31.1767 -31.1694 -31.1691 -31.1680 -31.1677
   -31.1504 -31.1480 -31.1459 -31.1456 -31.1455 -31.1417 -31.1405 -31.1397
     5.6123   7.1355   7.1549   7.2012   7.2125   7.3620   7.8477   7.8884
     7.8960   7.9551   8.0791   8.0988   8.1215   8.1812   8.1881   8.2444
     8.2484   8.3008   8.3027   8.5134   8.5504   8.5537   8.5661   8.6003
     8.6086   8.8515   8.8563   8.8682   8.8696   8.8880   8.8952   8.8958
     8.8961   8.9076   8.9081   8.9117   8.9414   8.9528   8.9540   8.9694
     8.9820   9.0822   9.1198   9.1226   9.1244   9.1290   9.1561   9.1588
     9.1845   9.2007   9.2171   9.2657   9.2860   9.2861   9.3147   9.3375
     9.3439   9.3645   9.3649   9.3667   9.3745   9.3839   9.3915   9.4374
     9.4387   9.4502   9.4519   9.4625   9.4654   9.4738   9.4872   9.5773
     9.5780   9.5861   9.5873   9.5899   9.6008   9.6646   9.6702   9.6719
     9.6723   9.6729   9.6926   9.7343   9.7610   9.7744   9.7925   9.8476
     9.8502   9.9027   9.9067   9.9414   9.9498   9.9535  10.0228  10.0424
    10.0764  10.1091  10.1296  10.1762  10.2825  10.2870  10.2889  10.2964
    10.2987  10.2997  10.3073  10.3116  10.3206  10.3248  10.3335  10.3364
    10.3366  10.3462  10.3524  10.3549  10.3647  10.3704  10.3825  10.3831
    10.4008  10.5154  10.5193  10.5432  10.6060  10.6144  10.6187  10.6358
    10.6660  10.7807  10.7859  10.7962  10.8169  10.8244  10.8256  10.8433
    10.8488  10.8552  10.8610  10.8669  10.8767  10.8823  10.8855  10.8968
    10.9031  10.9186  11.0148  11.0202  11.0872  11.0884  11.1493  11.2119
    11.2139  11.2173  11.2258  11.2325  11.2608  11.3151  11.3286  11.3491
    11.3734  11.3802  11.3924  11.3968  11.3983  11.4112  11.4186  11.4246
    11.4400  11.4916  11.5712  11.5894  11.5898  11.5928  11.5973  11.6098
    11.6231  11.6556  11.7131  11.7214  11.7278  11.7450  11.7509  11.7522
    11.8238  11.8511  11.8565  11.8690  11.8763  11.9128  11.9201  11.9436
    11.9521  12.0207  12.0991  12.1008  12.1023  12.1028  12.1340  12.1353
    12.1445  12.1458  12.1460  12.1481  12.1599  12.1854  12.2059  12.2088
    12.2483  12.2512  12.2864  12.3157  12.3399  12.3424  12.3746  12.3904
    12.4262  12.4286  12.4341  12.4421  12.4835  12.4918  12.5020  12.5042
    12.5116  12.5278  12.5467  12.5481  12.5577  12.5609  12.5993  12.6166
    12.6811  12.7237  12.7397  12.7596  12.8405  12.8731  13.0255  13.1254
    13.1258  13.1289  13.1297  13.1808  13.3119  13.6048  13.7277  13.8395
    13.9080  14.0735  14.1138  14.1938  14.2408  14.3662  14.3745  14.6274
    14.7436  14.8081  14.8511  14.9336  15.1166  15.1176  15.2361  15.2505
    15.2743  15.3228  15.3468  15.3631  15.4276  15.4367  15.4459  15.6164
    15.6514  15.6700  15.7141  15.7552  15.7995  15.8509  15.8978  15.9721
    16.0209  16.0578  16.0819  16.1002  16.1147  16.1439  16.1767  16.1893
    16.2437  16.2671  16.3143  16.3239  16.3480  16.3501  16.3784  16.3930
    16.4140  16.5114  16.5445  16.6491  16.6549  16.6800  16.7339  16.8116
    17.0271  17.0615  17.1630  17.1645  17.2076  17.2242  17.2636  17.2905
    17.4409  17.5568  17.8545  17.8951  17.9228  17.9454  17.9711  18.0690
    18.2400  18.2911  18.4728  18.9276  18.9834  18.9977  19.1973  19.2427

[...]

          k =-0.5000-0.5000 0.0000 ( 31612 PWs)   bands (ev):

[...]

 ------ SPIN DOWN ----------

[...]

          k = 0.0000-0.5000-0.5734 ( 31696 PWs)   bands (ev):

[...]

          k =-0.5000 0.0000 0.5734 ( 31696 PWs)   bands (ev):

   -66.7753 -66.7062 -66.7061 -66.6680 -66.6680 -66.6358 -66.6357 -66.6162
   -66.5873 -62.4101 -62.3940 -62.3940 -62.3897 -62.3626 -62.3625 -62.3503
   -62.3502 -62.3230 -35.5333 -35.5257 -35.4959 -35.4690 -35.4689 -35.4561
   -35.4560 -35.4367 -35.4366 -35.4219 -35.4218 -35.4162 -35.4162 -35.3939
   -35.3938 -35.3884 -35.3883 -35.3858 -35.3857 -35.3673 -35.3644 -35.3621
   -35.3572 -35.3540 -35.3517 -35.3413 -35.2869 -31.2481 -31.2413 -31.2411
   -31.2339 -31.2222 -31.2207 -31.2162 -31.2111 -31.2094 -31.2080 -31.2041
   -31.2040 -31.1981 -31.1981 -31.1967 -31.1964 -31.1904 -31.1901 -31.1728
   -31.1727 -31.1697 -31.1696 -31.1646 -31.1613 -31.1612 -31.1408 -31.1397
     6.5225   6.5842   6.5876   6.6462   7.8277   7.8473   7.8667   7.8746
     7.9157   7.9167   7.9283   7.9522   8.2649   8.2829   8.2975   8.3055
     8.5083   8.5256   8.5326   8.5417   8.6574   8.6625   8.6689   8.6831
     8.6865   8.6875   8.7023   8.7185   8.7385   8.7403   8.7527   8.7545
     8.7571   8.7749   8.7796   8.8193   8.9469   9.0021   9.0054   9.0292
     9.0348   9.0550   9.0572   9.0697   9.1859   9.2007   9.2104   9.2187
     9.2202   9.2257   9.2260   9.2359   9.2452   9.2474   9.2541   9.2627
     9.2718   9.2736   9.2760   9.2878   9.2909   9.3528   9.3787   9.4005
     9.4109   9.4257   9.4569   9.4619   9.4624   9.4663   9.4707   9.4739
     9.4901   9.5068   9.5085   9.5240   9.5329   9.5366   9.5540   9.5595
     9.5846   9.6052   9.7518   9.7600   9.7829   9.7903   9.8067   9.8165
     9.8363   9.8364   9.8508   9.8537   9.8553   9.8643   9.8689   9.8858
     9.9487   9.9741  10.0088  10.0123  10.0272  10.0274  10.0532  10.0602
    10.3550  10.3787  10.3924  10.3966  10.4008  10.4180  10.4279  10.4328
    10.4517  10.4688  10.4708  10.4712  10.4863  10.4976  10.5029  10.5068
    10.5312  10.5406  10.5708  10.5886  10.6011  10.6032  10.6195  10.6288
    10.6408  10.6521  10.6696  10.6710  10.6797  10.6817  10.7111  10.7124
    10.7413  10.8192  10.8961  10.9201  10.9646  10.9918  11.0284  11.0832
    11.1085  11.1250  11.1275  11.1553  11.1829  11.1959  11.1977  11.2101
    11.2127  11.2140  11.2804  11.3204  11.3249  11.3435  11.3676  11.3736
    11.3801  11.3896  11.4216  11.4249  11.4439  11.4843  11.4867  11.5133
    11.5329  11.5563  11.5735  11.5789  11.5821  11.5875  11.6147  11.6227
    11.6385  11.6446  11.7195  11.7302  11.7493  11.7657  11.7946  11.8418
    11.9012  11.9144  11.9284  11.9473  11.9670  11.9705  12.0038  12.0063
    12.0164  12.0299  12.0309  12.0379  12.0398  12.0600  12.1143  12.1299
    12.1660  12.1708  12.2069  12.2339  12.2827  12.3115  12.3130  12.3230
    12.3378  12.3398  12.4281  12.4362  12.4545  12.4599  12.4708  12.4980
    12.5105  12.5205  12.5405  12.5408  12.5464  12.5725  12.5846  12.5930
    12.6052  12.6246  12.6355  12.6587  12.6747  12.7080  12.7340  12.7638
    12.7926  12.8256  12.9319  12.9351  12.9857  12.9984  13.0357  13.0670
    13.1671  13.2050  13.3764  13.4668  13.5155  13.6448  13.7075  13.7102
    13.8245  14.0199  14.0364  14.1186  14.2408  14.2451  14.2760  14.3611
    14.5262  14.5459  14.5636  14.6232  14.6565  14.7721  14.8239  14.9059
    15.0492  15.2184  15.2813  15.3342  15.3688  15.4215  15.5332  15.5346
    15.6401  15.6413  15.6844  15.7044  15.8020  15.8618  15.9113  15.9716
    16.0217  16.0342  16.0823  16.1398  16.1594  16.1826  16.2149  16.2261
    16.2462  16.2591  16.2862  16.3495  16.3637  16.3758  16.3943  16.4563
    16.4732  16.5299  16.5438  16.5722  16.5874  16.6185  16.6749  16.6957
    16.7503  16.7703  16.8482  16.8777  16.9292  16.9505  16.9527  16.9896
    17.0810  17.1341  17.1717  17.3260  18.6012  18.6911  18.7146  18.7473
    18.7500  18.8057  18.8248  18.8684  18.8814  18.8832  18.9417  18.9483

     the Fermi energy is    14.8294 ev

!    total energy              =  -33062.58582915 Ry
     Harris-Foulkes estimate   =  -33062.58581337 Ry
     estimated scf accuracy    <       0.00000056 Ry

     total all-electron energy =  -1410574.676204 Ry

     The total energy is the sum of the following terms:

     one-electron contribution =   -1645.64152504 Ry
     hartree contribution      =    1489.86467286 Ry
     xc contribution           =   -1658.73618492 Ry
     ewald contribution        =   -4919.25534656 Ry
     one-center paw contrib.   =  -26328.81744550 Ry

     total magnetization       =     0.31 Bohr mag/cell
     absolute magnetization    =    78.66 Bohr mag/cell

     convergence has been achieved in  22 iterations

     Writing output data file mnau2.save

     General routines

     Parallel routines

   This run was terminated on:  17: 6: 1   7Mar2019

   JOB DONE.