     Program PWSCF v.6.2 (svn rev. 14038) starts on  7Mar2019 at 17: 6: 2

     R & G space division:  proc/nbgrp/npool/nimage =      16
     Waiting for input...
     Reading input from standard input

     Current dimensions of program PWSCF are:
     Max number of different atomic species (ntypx) = 10
     Max number of k-points (npk) =  40000
     Max angular momentum in pseudopotentials (lmaxx) =  3
               file Mn.pbe-spn-kjpaw_psl.0.3.1.UPF: wavefunction(s)  3P 3D renormalized
               file Mn.pbe-spn-kjpaw_psl.0.3.1.UPF: wavefunction(s)  3P 3D renormalized
               file Au.pbe-dn-kjpaw_psl.0.1.UPF: wavefunction(s)  6S 6P 5D renormalized

     Subspace diagonalization in iterative solution of the eigenvalue problem:
     a serial algorithm will be used

     bravais-lattice index     =            0
     lattice parameter (alat)  =      19.2459  a.u.
     unit-cell volume          =    6216.1497 (a.u.)^3
     number of atoms/cell      =           54
     number of atomic types    =            3
     number of electrons       =       666.00
     number of Kohn-Sham states=          400
     kinetic-energy cutoff     =      45.0000  Ry
     charge density cutoff     =     400.0000  Ry
     convergence threshold     =      1.0E-06
     mixing beta               =       0.1000
     number of iterations used =            8  plain     mixing
     Exchange-correlation      = SLA PW PBX PBC ( 1  4  3  4 0 0)

     celldm(1)=  19.245946  celldm(2)=   0.000000  celldm(3)=   0.000000
     celldm(4)=   0.000000  celldm(5)=   0.000000  celldm(6)=   0.000000

     crystal axes: (cart. coord. in units of alat)
               a(1) = (   1.000000   0.000000   0.000000 )
               a(2) = (   0.000000   1.000000   0.000000 )
               a(3) = (   0.000000   0.000000   0.871974 )

     reciprocal axes: (cart. coord. in units 2 pi/alat)
               b(1) = (  1.000000  0.000000  0.000000 )
               b(2) = (  0.000000  1.000000  0.000000 )
               b(3) = (  0.000000  0.000000  1.146823 )

     PseudoPot. # 1 for Mn read from file:
     ./pseudo/Mn.pbe-spn-kjpaw_psl.0.3.1.UPF
     MD5 check sum: 7eef95dd2aae66803482eea66ebeebf1
     Pseudo is Projector augmented-wave + core cor, Zval = 15.0
     Generated using "atomic" code by A. Dal Corso v.5.0.99 svn rev. 10869
     Shape of augmentation charge: PSQ
     Using radial grid of 1187 points,  6 beta functions with:
                l(1) =   0
                l(2) =   0
                l(3) =   1
                l(4) =   1
                l(5) =   2
                l(6) =   2
     Q(r) pseudized with 0 coefficients

     PseudoPot. # 2 for Mn read from file:
     ./pseudo/Mn.pbe-spn-kjpaw_psl.0.3.1.UPF
     MD5 check sum: 7eef95dd2aae66803482eea66ebeebf1
     Pseudo is Projector augmented-wave + core cor, Zval = 15.0
     Generated using "atomic" code by A. Dal Corso v.5.0.99 svn rev. 10869
     Shape of augmentation charge: PSQ
     Using radial grid of 1187 points,  6 beta functions with:
                l(1) =   0
                l(2) =   0
                l(3) =   1
                l(4) =   1
                l(5) =   2
                l(6) =   2
     Q(r) pseudized with 0 coefficients

     PseudoPot. # 3 for Au read from file:
     ./pseudo/Au.pbe-dn-kjpaw_psl.0.1.UPF
     MD5 check sum: 5c9b92683623e7ae2ab3f8e525febab6
     Pseudo is Projector augmented-wave + core cor, Zval = 11.0
     Generated using "atomic" code by A. Dal Corso v.5.0.2 svn rev. 9415
     Shape of augmentation charge: PSQ
     Using radial grid of 1279 points,  6 beta functions with:
                l(1) =   0
                l(2) =   0
                l(3) =   1
                l(4) =   1
                l(5) =   2
                l(6) =   2
     Q(r) pseudized with 0 coefficients

     atomic species   valence    mass     pseudopotential
        Mn1           15.00    54.93800     Mn( 1.00)
        Mn2           15.00    54.93800     Mn( 1.00)
        Au            11.00   196.96600     Au( 1.00)

     Starting magnetic structure
     atomic species   magnetization
        Mn1          0.800
        Mn2         -0.800
        Au           0.000

      2 Sym. Ops. (no inversion) found

   Cartesian axes

     site n.     atom                  positions (alat units)
         1           Mn1 tau(   1) = (   0.0000000   0.0000000   0.0000000  )
         2           Mn1 tau(   2) = (   0.0000000   0.3333300   0.0000000  )
         3           Mn2 tau(   3) = (   0.0000000   0.6666700   0.0000000  )
         4           Mn2 tau(   4) = (   0.3333300   0.0000000   0.0000000  )
         5           Mn2 tau(   5) = (   0.3333300   0.3333300   0.0000000  )
         6           Mn2 tau(   6) = (   0.3333300   0.6666700   0.0000000  )
         7           Mn2 tau(   7) = (   0.6666700   0.0000000   0.0000000  )
         8           Mn2 tau(   8) = (   0.6666700   0.3333300   0.0000000  )
         9           Mn1 tau(   9) = (   0.6666700   0.6666700   0.0000000  )
        10           Mn2 tau(  10) = (   0.1666700   0.1666700   0.4359871  )
        11           Mn2 tau(  11) = (   0.1666700   0.5000000   0.4359871  )
        12           Mn1 tau(  12) = (   0.1666700   0.8333300   0.4359871  )
        13           Mn1 tau(  13) = (   0.5000000   0.1666700   0.4359871  )
        14           Mn1 tau(  14) = (   0.5000000   0.5000000   0.4359871  )
        15           Mn1 tau(  15) = (   0.5000000   0.8333300   0.4359871  )
        16           Mn1 tau(  16) = (   0.8333300   0.1666700   0.4359871  )
        17           Mn1 tau(  17) = (   0.8333300   0.5000000   0.4359871  )
        18           Mn2 tau(  18) = (   0.8333300   0.8333300   0.4359871  )
        19           Au  tau(  19) = (   0.1666700   0.1666700   0.7327374  )
        20           Au  tau(  20) = (   0.1666700   0.5000000   0.7327374  )
        21           Au  tau(  21) = (   0.1666700   0.8333300   0.7327374  )
        22           Au  tau(  22) = (   0.5000000   0.1666700   0.7327374  )
        23           Au  tau(  23) = (   0.5000000   0.5000000   0.7327374  )
        24           Au  tau(  24) = (   0.5000000   0.8333300   0.7327374  )
        25           Au  tau(  25) = (   0.8333300   0.1666700   0.7327374  )
        26           Au  tau(  26) = (   0.8333300   0.5000000   0.7327374  )
        27           Au  tau(  27) = (   0.8333300   0.8333300   0.7327374  )
        28           Au  tau(  28) = (   0.1666700   0.1666700   0.1392369  )
        29           Au  tau(  29) = (   0.1666700   0.5000000   0.1392369  )
        30           Au  tau(  30) = (   0.1666700   0.8333300   0.1392369  )
        31           Au  tau(  31) = (   0.5000000   0.1666700   0.1392369  )
        32           Au  tau(  32) = (   0.5000000   0.5000000   0.1392369  )
        33           Au  tau(  33) = (   0.5000000   0.8333300   0.1392369  )
        34           Au  tau(  34) = (   0.8333300   0.1666700   0.1392369  )
        35           Au  tau(  35) = (   0.8333300   0.5000000   0.1392369  )
        36           Au  tau(  36) = (   0.8333300   0.8333300   0.1392369  )
        37           Au  tau(  37) = (   0.0000000   0.0000000   0.2967503  )
        38           Au  tau(  38) = (   0.0000000   0.3333300   0.2967503  )
        39           Au  tau(  39) = (   0.0000000   0.6666700   0.2967503  )
        40           Au  tau(  40) = (   0.3333300   0.0000000   0.2967503  )
        41           Au  tau(  41) = (   0.3333300   0.3333300   0.2967503  )
        42           Au  tau(  42) = (   0.3333300   0.6666700   0.2967503  )
        43           Au  tau(  43) = (   0.6666700   0.0000000   0.2967503  )
        44           Au  tau(  44) = (   0.6666700   0.3333300   0.2967503  )
        45           Au  tau(  45) = (   0.6666700   0.6666700   0.2967503  )
        46           Au  tau(  46) = (   0.0000000   0.0000000   0.5752240  )
        47           Au  tau(  47) = (   0.0000000   0.3333300   0.5752240  )
        48           Au  tau(  48) = (   0.0000000   0.6666700   0.5752240  )
        49           Au  tau(  49) = (   0.3333300   0.0000000   0.5752240  )
        50           Au  tau(  50) = (   0.3333300   0.3333300   0.5752240  )
        51           Au  tau(  51) = (   0.3333300   0.6666700   0.5752240  )
        52           Au  tau(  52) = (   0.6666700   0.0000000   0.5752240  )
        53           Au  tau(  53) = (   0.6666700   0.3333300   0.5752240  )
        54           Au  tau(  54) = (   0.6666700   0.6666700   0.5752240  )

     number of k points=     8 (tetrahedron method)
                       cart. coord. in units 2pi/alat
        k(    1) = (   0.0000000   0.0000000   0.0000000), wk =   0.1250000
        k(    2) = (   0.0000000   0.0000000  -0.5734114), wk =   0.1250000
        k(    3) = (   0.0000000  -0.5000000   0.0000000), wk =   0.1250000
        k(    4) = (   0.0000000  -0.5000000  -0.5734114), wk =   0.1250000
        k(    5) = (  -0.5000000  -0.5000000   0.0000000), wk =   0.1250000
        k(    6) = (  -0.5000000  -0.5000000  -0.5734114), wk =   0.1250000
        k(    7) = (  -0.5000000   0.0000000   0.0000000), wk =   0.1250000
        k(    8) = (  -0.5000000   0.0000000   0.5734114), wk =   0.1250000

     Check: negative/imaginary core charge=   -0.000006    0.000000

     Initial potential from superposition of free atoms

     starting charge  665.98709, renormalised to  666.00000
     Starting wfc are  504 randomized atomic wfcs
     Checking if some PAW data can be deallocated...

     Self-consistent Calculation

     iteration #  1     ecut=    45.00 Ry     beta= 0.10
     Davidson diagonalization with overlap
     ethr =  1.00E-02,  avg # of iterations =  3.4

     total energy              =  -33047.20959099 Ry
     Harris-Foulkes estimate   =  -33044.06088340 Ry
     estimated scf accuracy    <      26.98493444 Ry

     total magnetization       =    -0.02 Bohr mag/cell
     absolute magnetization    =    92.05 Bohr mag/cell

[...]

     total energy              =  -33062.59521553 Ry
     Harris-Foulkes estimate   =  -33062.59521007 Ry
     estimated scf accuracy    <       0.00000147 Ry

[...]

     iteration # 21     ecut=    45.00 Ry     beta= 0.10
     Davidson diagonalization with overlap
     ethr =  2.20E-10,  avg # of iterations =  2.0

     Magnetic moment per site:
     atom:    1    charge:   13.5756    magn:    4.0206    constr:    0.0000
     atom:    2    charge:   13.5764    magn:    4.0137    constr:    0.0000
     atom:    3    charge:   13.5804    magn:   -3.9772    constr:    0.0000
     atom:    4    charge:   13.5810    magn:   -3.9664    constr:    0.0000
     atom:    5    charge:   13.5738    magn:   -4.0196    constr:    0.0000
     atom:    6    charge:   13.5793    magn:   -3.9632    constr:    0.0000
     atom:    7    charge:   13.5715    magn:   -4.0465    constr:    0.0000
     atom:    8    charge:   13.5756    magn:   -4.0087    constr:    0.0000
     atom:    9    charge:   13.5822    magn:    3.9894    constr:    0.0000
     atom:   10    charge:   13.5814    magn:   -3.9833    constr:    0.0000
     atom:   11    charge:   13.5771    magn:   -4.0167    constr:    0.0000
     atom:   12    charge:   13.5798    magn:    3.9847    constr:    0.0000
     atom:   13    charge:   13.5782    magn:    3.9913    constr:    0.0000
     atom:   14    charge:   13.5706    magn:    4.0358    constr:    0.0000
     atom:   15    charge:   13.5742    magn:    4.0019    constr:    0.0000
     atom:   16    charge:   13.5815    magn:    3.9669    constr:    0.0000
     atom:   17    charge:   13.5819    magn:    3.9614    constr:    0.0000
     atom:   18    charge:   13.5728    magn:   -4.0842    constr:    0.0000
     atom:   19    charge:    9.1206    magn:   -0.0123    constr:    0.0000
     atom:   20    charge:    9.1203    magn:   -0.0432    constr:    0.0000
     atom:   21    charge:    9.1201    magn:   -0.0211    constr:    0.0000
     atom:   22    charge:    9.1221    magn:   -0.0531    constr:    0.0000
     atom:   23    charge:    9.1212    magn:   -0.0147    constr:    0.0000
     atom:   24    charge:    9.1211    magn:   -0.0150    constr:    0.0000
     atom:   25    charge:    9.1211    magn:    0.0058    constr:    0.0000
     atom:   26    charge:    9.1205    magn:    0.0096    constr:    0.0000
     atom:   27    charge:    9.1210    magn:   -0.0094    constr:    0.0000
     atom:   28    charge:    9.1206    magn:   -0.0123    constr:    0.0000
     atom:   29    charge:    9.1203    magn:   -0.0432    constr:    0.0000
     atom:   30    charge:    9.1201    magn:   -0.0211    constr:    0.0000
     atom:   31    charge:    9.1221    magn:   -0.0531    constr:    0.0000
     atom:   32    charge:    9.1212    magn:   -0.0147    constr:    0.0000
     atom:   33    charge:    9.1211    magn:   -0.0150    constr:    0.0000
     atom:   34    charge:    9.1211    magn:    0.0058    constr:    0.0000
     atom:   35    charge:    9.1205    magn:    0.0096    constr:    0.0000
     atom:   36    charge:    9.1210    magn:   -0.0094    constr:    0.0000
     atom:   37    charge:    9.1219    magn:    0.0096    constr:    0.0000
     atom:   38    charge:    9.1209    magn:    0.0088    constr:    0.0000
     atom:   39    charge:    9.1199    magn:   -0.0093    constr:    0.0000
     atom:   40    charge:    9.1216    magn:    0.0147    constr:    0.0000
     atom:   41    charge:    9.1215    magn:   -0.0142    constr:    0.0000
     atom:   42    charge:    9.1207    magn:    0.0174    constr:    0.0000
     atom:   43    charge:    9.1213    magn:    0.0155    constr:    0.0000
     atom:   44    charge:    9.1204    magn:    0.0519    constr:    0.0000
     atom:   45    charge:    9.1196    magn:    0.0321    constr:    0.0000
     atom:   46    charge:    9.1219    magn:    0.0096    constr:    0.0000
     atom:   47    charge:    9.1209    magn:    0.0088    constr:    0.0000
     atom:   48    charge:    9.1199    magn:   -0.0093    constr:    0.0000
     atom:   49    charge:    9.1216    magn:    0.0147    constr:    0.0000
     atom:   50    charge:    9.1215    magn:   -0.0142    constr:    0.0000
     atom:   51    charge:    9.1207    magn:    0.0174    constr:    0.0000
     atom:   52    charge:    9.1213    magn:    0.0155    constr:    0.0000
     atom:   53    charge:    9.1204    magn:    0.0519    constr:    0.0000
     atom:   54    charge:    9.1196    magn:    0.0321    constr:    0.0000

     End of self-consistent calculation

 ------ SPIN UP ------------

          k = 0.0000 0.0000 0.0000 ( 31747 PWs)   bands (ev):

   -66.7715 -66.7110 -66.6827 -66.6688 -66.6677 -66.6284 -66.6033 -66.5928
   -66.5812 -62.4017 -62.3901 -62.3850 -62.3733 -62.3517 -62.3356 -62.3321
   -62.3248 -62.3030 -35.5312 -35.5192 -35.4911 -35.4764 -35.4642 -35.4604
   -35.4317 -35.4285 -35.4215 -35.4212 -35.4201 -35.4163 -35.4076 -35.3979
   -35.3902 -35.3889 -35.3833 -35.3632 -35.3579 -35.3545 -35.3458 -35.3423
   -35.3360 -35.3284 -35.3185 -35.3112 -35.3056 -31.2416 -31.2388 -31.2339
   -31.2262 -31.2205 -31.2190 -31.2150 -31.2060 -31.1981 -31.1931 -31.1884
   -31.1877 -31.1871 -31.1789 -31.1769 -31.1762 -31.1623 -31.1591 -31.1576
   -31.1571 -31.1503 -31.1498 -31.1463 -31.1369 -31.1309 -31.1269 -31.1196
     5.6165   7.1423   7.1634   7.1944   7.2170   7.3652   7.8552   7.8851
     7.9104   7.9547   8.0798   8.1092   8.1457   8.1592   8.1913   8.2492
     8.2753   8.2800   8.3076   8.5258   8.5444   8.5684   8.5725   8.5783
     8.6245   8.8554   8.8604   8.8740   8.8797   8.8871   8.8977   8.8983
     8.9039   8.9094   8.9160   8.9196   8.9309   8.9478   8.9541   8.9695
     8.9879   9.0840   9.1200   9.1244   9.1275   9.1335   9.1575   9.1628
     9.1860   9.1958   9.2138   9.2693   9.2817   9.3017   9.3073   9.3467
     9.3503   9.3623   9.3732   9.3801   9.3822   9.3962   9.4200   9.4275
     9.4410   9.4447   9.4488   9.4632   9.4642   9.4673   9.4901   9.5783
     9.5821   9.5875   9.5932   9.5960   9.6426   9.6457   9.6676   9.6703
     9.6728   9.6770   9.6858   9.7481   9.7593   9.7747   9.7834   9.8500
     9.8505   9.9111   9.9246   9.9339   9.9502   9.9532  10.0002  10.0294
    10.0853  10.1278  10.1532  10.1815  10.2854  10.2920  10.2950  10.2965
    10.3052  10.3102  10.3105  10.3142  10.3245  10.3263  10.3389  10.3422
    10.3489  10.3507  10.3593  10.3605  10.3617  10.3634  10.3831  10.3841
    10.3927  10.5114  10.5118  10.5580  10.5882  10.6084  10.6386  10.6890
    10.7057  10.7839  10.7867  10.7902  10.8067  10.8125  10.8256  10.8486
    10.8523  10.8677  10.8734  10.8756  10.8760  10.8806  10.8975  10.9054
    10.9082  10.9092  11.0207  11.0551  11.0578  11.0927  11.2037  11.2155
    11.2213  11.2263  11.2306  11.2598  11.2727  11.2921  11.3352  11.3417
    11.3544  11.3813  11.3905  11.3918  11.4032  11.4078  11.4258  11.4280
    11.4966  11.5066  11.5693  11.5873  11.5904  11.5937  11.5961  11.5980
    11.6217  11.6283  11.6675  11.7241  11.7327  11.7430  11.7515  11.7956
    11.8214  11.8347  11.8416  11.8672  11.8705  11.9181  11.9339  11.9481
    11.9637  11.9888  12.0974  12.0980  12.1012  12.1032  12.1060  12.1062
    12.1408  12.1441  12.1462  12.1475  12.1503  12.1690  12.2000  12.2348
    12.2572  12.2964  12.3334  12.3591  12.3716  12.3731  12.3947  12.3978
    12.4340  12.4356  12.4630  12.4932  12.5024  12.5042  12.5113  12.5415
    12.5518  12.5620  12.5753  12.5894  12.6145  12.6258  12.6578  12.6990
    12.7158  12.7311  12.7650  12.8009  12.9651  13.0168  13.0406  13.1169
    13.1326  13.1459  13.1593  13.1648  13.4090  13.6350  13.7318  13.7943
    13.8391  14.0660  14.1237  14.2151  14.2252  14.3784  14.3824  14.4944
    14.7740  14.8895  14.9085  15.0384  15.1003  15.1411  15.1755  15.2150
    15.2632  15.2704  15.3226  15.3508  15.3819  15.4932  15.5018  15.5533
    15.5805  15.6947  15.7536  15.8306  15.8475  15.8791  15.9830  16.0177
    16.0571  16.0889  16.1220  16.1378  16.1466  16.1625  16.1654  16.1904
    16.1911  16.2219  16.2373  16.2773  16.3277  16.3541  16.3954  16.4254
    16.4494  16.4746  16.5390  16.5882  16.6598  16.6608  16.8546  16.8701
    16.9542  17.0328  17.1654  17.1763  17.2028  17.2535  17.3170  17.3720
    17.3985  17.4926  17.8425  17.8973  17.9384  17.9466  17.9685  18.0433
    18.1282  18.3428  18.4514  18.9579  18.9964  19.0614  19.1201  19.2214

[...]

          k =-0.5000-0.5000 0.0000 ( 31612 PWs)   bands (ev):

[...]

 ------ SPIN DOWN ----------

[...]

          k = 0.0000-0.5000-0.5734 ( 31696 PWs)   bands (ev):

[...]

          k =-0.5000 0.0000 0.5734 ( 31696 PWs)   bands (ev):

   -66.7443 -66.7331 -66.6990 -66.6880 -66.6510 -66.6454 -66.6270 -66.6142
   -66.6110 -62.4225 -62.3978 -62.3658 -62.3600 -62.3523 -62.3413 -62.3302
   -62.3249 -62.2921 -35.5175 -35.4859 -35.4847 -35.4794 -35.4768 -35.4668
   -35.4589 -35.4547 -35.4450 -35.4322 -35.4277 -35.4276 -35.4061 -35.4022
   -35.3990 -35.3953 -35.3887 -35.3793 -35.3751 -35.3661 -35.3652 -35.3604
   -35.3593 -35.3587 -35.3562 -35.3411 -35.3206 -31.2613 -31.2496 -31.2458
   -31.2315 -31.2233 -31.2152 -31.2007 -31.1955 -31.1921 -31.1911 -31.1891
   -31.1841 -31.1821 -31.1781 -31.1768 -31.1681 -31.1679 -31.1645 -31.1597
   -31.1588 -31.1434 -31.1423 -31.1417 -31.1385 -31.1324 -31.1146 -31.0999
     6.5146   6.5832   6.5927   6.6384   7.8241   7.8373   7.8696   7.8867
     7.8915   7.9096   7.9267   7.9535   8.2630   8.2789   8.2983   8.3031
     8.5148   8.5241   8.5269   8.5307   8.6521   8.6609   8.6763   8.6828
     8.6899   8.6923   8.7027   8.7085   8.7243   8.7338   8.7461   8.7483
     8.7631   8.7801   8.7879   8.8014   8.9410   9.0094   9.0126   9.0246
     9.0393   9.0521   9.0561   9.0612   9.1791   9.2078   9.2092   9.2203
     9.2205   9.2276   9.2288   9.2402   9.2464   9.2473   9.2558   9.2559
     9.2599   9.2688   9.2738   9.2817   9.2853   9.3456   9.3783   9.4007
     9.4222   9.4254   9.4310   9.4527   9.4550   9.4642   9.4740   9.4802
     9.4860   9.4875   9.5128   9.5307   9.5327   9.5359   9.5551   9.5660
     9.5764   9.6127   9.7514   9.7581   9.7812   9.7981   9.8157   9.8176
     9.8246   9.8307   9.8457   9.8471   9.8516   9.8610   9.8720   9.8809
     9.9363   9.9546  10.0010  10.0171  10.0322  10.0413  10.0492  10.0588
    10.3625  10.3756  10.3920  10.4010  10.4060  10.4163  10.4214  10.4262
    10.4440  10.4701  10.4718  10.4756  10.4854  10.4881  10.5137  10.5140
    10.5294  10.5616  10.5722  10.5779  10.5813  10.5892  10.5906  10.6087
    10.6354  10.6444  10.6699  10.6753  10.6811  10.6980  10.7119  10.7309
    10.7610  10.8329  10.8837  10.9064  10.9869  11.0035  11.0286  11.0338
    11.1189  11.1325  11.1438  11.1450  11.1835  11.1924  11.1950  11.2044
    11.2091  11.2131  11.2768  11.2996  11.3364  11.3427  11.3635  11.3700
    11.3742  11.3773  11.3975  11.4298  11.4477  11.4499  11.4743  11.5340
    11.5524  11.5583  11.5692  11.5694  11.5762  11.5838  11.5916  11.6201
    11.6280  11.6318  11.7277  11.7343  11.7595  11.7633  11.7678  11.8532
    11.8996  11.9079  11.9371  11.9456  11.9544  11.9570  11.9907  12.0048
    12.0093  12.0189  12.0255  12.0352  12.0371  12.0523  12.0602  12.1231
    12.1598  12.1631  12.2200  12.2483  12.2552  12.2740  12.2797  12.3313
    12.3458  12.3640  12.4046  12.4079  12.4356  12.4358  12.4672  12.4713
    12.4716  12.4893  12.5080  12.5247  12.5351  12.5654  12.5721  12.5798
    12.6159  12.6366  12.6562  12.6606  12.6636  12.7559  12.7853  12.8097
    12.9048  12.9386  12.9467  12.9560  13.0417  13.0480  13.0709  13.1039
    13.1895  13.2186  13.3955  13.4244  13.4888  13.6825  13.7096  13.8007
    13.9332  13.9558  13.9904  14.0673  14.0677  14.1267  14.2584  14.3966
    14.4150  14.5331  14.5445  14.5694  14.5707  14.6281  14.8189  15.0432
    15.1476  15.1975  15.2654  15.3251  15.3702  15.4220  15.5331  15.5494
    15.6389  15.6620  15.7075  15.7780  15.9207  15.9728  15.9840  16.0449
    16.0716  16.1084  16.1308  16.1675  16.1698  16.2210  16.2317  16.2465
    16.2596  16.3047  16.3173  16.3276  16.3763  16.4199  16.4343  16.4422
    16.4644  16.5009  16.5533  16.5784  16.5976  16.6022  16.6745  16.7111
    16.7256  16.7389  16.7744  16.8136  16.8706  16.9131  16.9464  17.0669
    17.0750  17.0926  17.1051  17.2899  18.6410  18.6890  18.7270  18.7710
    18.8106  18.8169  18.8419  18.8648  18.8930  18.9012  18.9021  18.9660

     the Fermi energy is    14.8129 ev

!    total energy              =  -33062.59523036 Ry
     Harris-Foulkes estimate   =  -33062.59521152 Ry
     estimated scf accuracy    <       0.00000079 Ry

     total all-electron energy =  -1410574.685605 Ry

     The total energy is the sum of the following terms:

     one-electron contribution =   -1645.88838778 Ry
     hartree contribution      =    1490.09258747 Ry
     xc contribution           =   -1658.74405122 Ry
     ewald contribution        =   -4919.25534656 Ry
     one-center paw contrib.   =  -26328.80003226 Ry

     total magnetization       =    -0.22 Bohr mag/cell
     absolute magnetization    =    78.39 Bohr mag/cell

     convergence has been achieved in  21 iterations

     Writing output data file mnau2.save

     General routines

     Parallel routines

   This run was terminated on:  18: 2:10   7Mar2019

   JOB DONE.