     Program PWSCF v.6.2 (svn rev. 14038) starts on  8Mar2019 at  5: 2: 1

     R & G space division:  proc/nbgrp/npool/nimage =      16
     Waiting for input...
     Reading input from standard input

     Current dimensions of program PWSCF are:
     Max number of different atomic species (ntypx) = 10
     Max number of k-points (npk) =  40000
     Max angular momentum in pseudopotentials (lmaxx) =  3
               file Mn.pbe-spn-kjpaw_psl.0.3.1.UPF: wavefunction(s)  3P 3D renormalized
               file Mn.pbe-spn-kjpaw_psl.0.3.1.UPF: wavefunction(s)  3P 3D renormalized
               file Au.pbe-dn-kjpaw_psl.0.1.UPF: wavefunction(s)  6S 6P 5D renormalized

     Subspace diagonalization in iterative solution of the eigenvalue problem:
     a serial algorithm will be used

     bravais-lattice index     =            0
     lattice parameter (alat)  =      19.2459  a.u.
     unit-cell volume          =    6216.1497 (a.u.)^3
     number of atoms/cell      =           54
     number of atomic types    =            3
     number of electrons       =       666.00
     number of Kohn-Sham states=          400
     kinetic-energy cutoff     =      45.0000  Ry
     charge density cutoff     =     400.0000  Ry
     convergence threshold     =      1.0E-06
     mixing beta               =       0.1000
     number of iterations used =            8  plain     mixing
     Exchange-correlation      = SLA PW PBX PBC ( 1  4  3  4 0 0)

     celldm(1)=  19.245946  celldm(2)=   0.000000  celldm(3)=   0.000000
     celldm(4)=   0.000000  celldm(5)=   0.000000  celldm(6)=   0.000000

     crystal axes: (cart. coord. in units of alat)
               a(1) = (   1.000000   0.000000   0.000000 )
               a(2) = (   0.000000   1.000000   0.000000 )
               a(3) = (   0.000000   0.000000   0.871974 )

     reciprocal axes: (cart. coord. in units 2 pi/alat)
               b(1) = (  1.000000  0.000000  0.000000 )
               b(2) = (  0.000000  1.000000  0.000000 )
               b(3) = (  0.000000  0.000000  1.146823 )

     PseudoPot. # 1 for Mn read from file:
     ./pseudo/Mn.pbe-spn-kjpaw_psl.0.3.1.UPF
     MD5 check sum: 7eef95dd2aae66803482eea66ebeebf1
     Pseudo is Projector augmented-wave + core cor, Zval = 15.0
     Generated using "atomic" code by A. Dal Corso v.5.0.99 svn rev. 10869
     Shape of augmentation charge: PSQ
     Using radial grid of 1187 points,  6 beta functions with:
                l(1) =   0
                l(2) =   0
                l(3) =   1
                l(4) =   1
                l(5) =   2
                l(6) =   2
     Q(r) pseudized with 0 coefficients

     PseudoPot. # 2 for Mn read from file:
     ./pseudo/Mn.pbe-spn-kjpaw_psl.0.3.1.UPF
     MD5 check sum: 7eef95dd2aae66803482eea66ebeebf1
     Pseudo is Projector augmented-wave + core cor, Zval = 15.0
     Generated using "atomic" code by A. Dal Corso v.5.0.99 svn rev. 10869
     Shape of augmentation charge: PSQ
     Using radial grid of 1187 points,  6 beta functions with:
                l(1) =   0
                l(2) =   0
                l(3) =   1
                l(4) =   1
                l(5) =   2
                l(6) =   2
     Q(r) pseudized with 0 coefficients

     PseudoPot. # 3 for Au read from file:
     ./pseudo/Au.pbe-dn-kjpaw_psl.0.1.UPF
     MD5 check sum: 5c9b92683623e7ae2ab3f8e525febab6
     Pseudo is Projector augmented-wave + core cor, Zval = 11.0
     Generated using "atomic" code by A. Dal Corso v.5.0.2 svn rev. 9415
     Shape of augmentation charge: PSQ
     Using radial grid of 1279 points,  6 beta functions with:
                l(1) =   0
                l(2) =   0
                l(3) =   1
                l(4) =   1
                l(5) =   2
                l(6) =   2
     Q(r) pseudized with 0 coefficients

     atomic species   valence    mass     pseudopotential
        Mn1           15.00    54.93800     Mn( 1.00)
        Mn2           15.00    54.93800     Mn( 1.00)
        Au            11.00   196.96600     Au( 1.00)

     Starting magnetic structure
     atomic species   magnetization
        Mn1          0.800
        Mn2         -0.800
        Au           0.000

      2 Sym. Ops. (no inversion) found

   Cartesian axes

     site n.     atom                  positions (alat units)
         1           Mn1 tau(   1) = (   0.0000000   0.0000000   0.0000000  )
         2           Mn2 tau(   2) = (   0.0000000   0.3333300   0.0000000  )
         3           Mn1 tau(   3) = (   0.0000000   0.6666700   0.0000000  )
         4           Mn1 tau(   4) = (   0.3333300   0.0000000   0.0000000  )
         5           Mn1 tau(   5) = (   0.3333300   0.3333300   0.0000000  )
         6           Mn1 tau(   6) = (   0.3333300   0.6666700   0.0000000  )
         7           Mn2 tau(   7) = (   0.6666700   0.0000000   0.0000000  )
         8           Mn2 tau(   8) = (   0.6666700   0.3333300   0.0000000  )
         9           Mn2 tau(   9) = (   0.6666700   0.6666700   0.0000000  )
        10           Mn2 tau(  10) = (   0.1666700   0.1666700   0.4359871  )
        11           Mn1 tau(  11) = (   0.1666700   0.5000000   0.4359871  )
        12           Mn2 tau(  12) = (   0.1666700   0.8333300   0.4359871  )
        13           Mn2 tau(  13) = (   0.5000000   0.1666700   0.4359871  )
        14           Mn2 tau(  14) = (   0.5000000   0.5000000   0.4359871  )
        15           Mn2 tau(  15) = (   0.5000000   0.8333300   0.4359871  )
        16           Mn1 tau(  16) = (   0.8333300   0.1666700   0.4359871  )
        17           Mn1 tau(  17) = (   0.8333300   0.5000000   0.4359871  )
        18           Mn1 tau(  18) = (   0.8333300   0.8333300   0.4359871  )
        19           Au  tau(  19) = (   0.1666700   0.1666700   0.7327374  )
        20           Au  tau(  20) = (   0.1666700   0.5000000   0.7327374  )
        21           Au  tau(  21) = (   0.1666700   0.8333300   0.7327374  )
        22           Au  tau(  22) = (   0.5000000   0.1666700   0.7327374  )
        23           Au  tau(  23) = (   0.5000000   0.5000000   0.7327374  )
        24           Au  tau(  24) = (   0.5000000   0.8333300   0.7327374  )
        25           Au  tau(  25) = (   0.8333300   0.1666700   0.7327374  )
        26           Au  tau(  26) = (   0.8333300   0.5000000   0.7327374  )
        27           Au  tau(  27) = (   0.8333300   0.8333300   0.7327374  )
        28           Au  tau(  28) = (   0.1666700   0.1666700   0.1392369  )
        29           Au  tau(  29) = (   0.1666700   0.5000000   0.1392369  )
        30           Au  tau(  30) = (   0.1666700   0.8333300   0.1392369  )
        31           Au  tau(  31) = (   0.5000000   0.1666700   0.1392369  )
        32           Au  tau(  32) = (   0.5000000   0.5000000   0.1392369  )
        33           Au  tau(  33) = (   0.5000000   0.8333300   0.1392369  )
        34           Au  tau(  34) = (   0.8333300   0.1666700   0.1392369  )
        35           Au  tau(  35) = (   0.8333300   0.5000000   0.1392369  )
        36           Au  tau(  36) = (   0.8333300   0.8333300   0.1392369  )
        37           Au  tau(  37) = (   0.0000000   0.0000000   0.2967503  )
        38           Au  tau(  38) = (   0.0000000   0.3333300   0.2967503  )
        39           Au  tau(  39) = (   0.0000000   0.6666700   0.2967503  )
        40           Au  tau(  40) = (   0.3333300   0.0000000   0.2967503  )
        41           Au  tau(  41) = (   0.3333300   0.3333300   0.2967503  )
        42           Au  tau(  42) = (   0.3333300   0.6666700   0.2967503  )
        43           Au  tau(  43) = (   0.6666700   0.0000000   0.2967503  )
        44           Au  tau(  44) = (   0.6666700   0.3333300   0.2967503  )
        45           Au  tau(  45) = (   0.6666700   0.6666700   0.2967503  )
        46           Au  tau(  46) = (   0.0000000   0.0000000   0.5752240  )
        47           Au  tau(  47) = (   0.0000000   0.3333300   0.5752240  )
        48           Au  tau(  48) = (   0.0000000   0.6666700   0.5752240  )
        49           Au  tau(  49) = (   0.3333300   0.0000000   0.5752240  )
        50           Au  tau(  50) = (   0.3333300   0.3333300   0.5752240  )
        51           Au  tau(  51) = (   0.3333300   0.6666700   0.5752240  )
        52           Au  tau(  52) = (   0.6666700   0.0000000   0.5752240  )
        53           Au  tau(  53) = (   0.6666700   0.3333300   0.5752240  )
        54           Au  tau(  54) = (   0.6666700   0.6666700   0.5752240  )

     number of k points=     8 (tetrahedron method)
                       cart. coord. in units 2pi/alat
        k(    1) = (   0.0000000   0.0000000   0.0000000), wk =   0.1250000
        k(    2) = (   0.0000000   0.0000000  -0.5734114), wk =   0.1250000
        k(    3) = (   0.0000000  -0.5000000   0.0000000), wk =   0.1250000
        k(    4) = (   0.0000000  -0.5000000  -0.5734114), wk =   0.1250000
        k(    5) = (  -0.5000000  -0.5000000   0.0000000), wk =   0.1250000
        k(    6) = (  -0.5000000  -0.5000000  -0.5734114), wk =   0.1250000
        k(    7) = (  -0.5000000   0.0000000   0.0000000), wk =   0.1250000
        k(    8) = (  -0.5000000   0.0000000   0.5734114), wk =   0.1250000

     Check: negative/imaginary core charge=   -0.000006    0.000000

     Initial potential from superposition of free atoms

     starting charge  665.98709, renormalised to  666.00000
     Starting wfc are  504 randomized atomic wfcs
     Checking if some PAW data can be deallocated...

     Self-consistent Calculation

     iteration #  1     ecut=    45.00 Ry     beta= 0.10
     Davidson diagonalization with overlap
     ethr =  1.00E-02,  avg # of iterations =  3.3

     total energy              =  -33047.19097665 Ry
     Harris-Foulkes estimate   =  -33044.04207611 Ry
     estimated scf accuracy    <      27.02556508 Ry

     total magnetization       =    -0.02 Bohr mag/cell
     absolute magnetization    =    92.12 Bohr mag/cell

[...]

     total energy              =  -33062.59189102 Ry
     Harris-Foulkes estimate   =  -33062.59188582 Ry
     estimated scf accuracy    <       0.00000133 Ry

[...]

     iteration # 21     ecut=    45.00 Ry     beta= 0.10
     Davidson diagonalization with overlap
     ethr =  2.00E-10,  avg # of iterations =  2.4

     Magnetic moment per site:
     atom:    1    charge:   13.5806    magn:    3.9870    constr:    0.0000
     atom:    2    charge:   13.5727    magn:   -4.0718    constr:    0.0000
     atom:    3    charge:   13.5836    magn:    3.9541    constr:    0.0000
     atom:    4    charge:   13.5685    magn:    4.0632    constr:    0.0000
     atom:    5    charge:   13.5725    magn:    4.0416    constr:    0.0000
     atom:    6    charge:   13.5705    magn:    4.0500    constr:    0.0000
     atom:    7    charge:   13.5818    magn:   -3.9517    constr:    0.0000
     atom:    8    charge:   13.5790    magn:   -3.9556    constr:    0.0000
     atom:    9    charge:   13.5767    magn:   -3.9927    constr:    0.0000
     atom:   10    charge:   13.5727    magn:   -4.0464    constr:    0.0000
     atom:   11    charge:   13.5825    magn:    3.9789    constr:    0.0000
     atom:   12    charge:   13.5692    magn:   -4.0569    constr:    0.0000
     atom:   13    charge:   13.5827    magn:   -3.9383    constr:    0.0000
     atom:   14    charge:   13.5834    magn:   -3.9334    constr:    0.0000
     atom:   15    charge:   13.5755    magn:   -3.9983    constr:    0.0000
     atom:   16    charge:   13.5726    magn:    4.0431    constr:    0.0000
     atom:   17    charge:   13.5714    magn:    4.0341    constr:    0.0000
     atom:   18    charge:   13.5733    magn:    4.0315    constr:    0.0000
     atom:   19    charge:    9.1219    magn:    0.0202    constr:    0.0000
     atom:   20    charge:    9.1201    magn:    0.0373    constr:    0.0000
     atom:   21    charge:    9.1212    magn:    0.0516    constr:    0.0000
     atom:   22    charge:    9.1205    magn:   -0.0047    constr:    0.0000
     atom:   23    charge:    9.1201    magn:   -0.0015    constr:    0.0000
     atom:   24    charge:    9.1210    magn:   -0.0092    constr:    0.0000
     atom:   25    charge:    9.1213    magn:   -0.0123    constr:    0.0000
     atom:   26    charge:    9.1211    magn:   -0.0125    constr:    0.0000
     atom:   27    charge:    9.1195    magn:    0.0146    constr:    0.0000
     atom:   28    charge:    9.1219    magn:    0.0202    constr:    0.0000
     atom:   29    charge:    9.1201    magn:    0.0373    constr:    0.0000
     atom:   30    charge:    9.1212    magn:    0.0516    constr:    0.0000
     atom:   31    charge:    9.1205    magn:   -0.0047    constr:    0.0000
     atom:   32    charge:    9.1201    magn:   -0.0015    constr:    0.0000
     atom:   33    charge:    9.1210    magn:   -0.0092    constr:    0.0000
     atom:   34    charge:    9.1213    magn:   -0.0123    constr:    0.0000
     atom:   35    charge:    9.1211    magn:   -0.0125    constr:    0.0000
     atom:   36    charge:    9.1195    magn:    0.0146    constr:    0.0000
     atom:   37    charge:    9.1210    magn:    0.0104    constr:    0.0000
     atom:   38    charge:    9.1218    magn:    0.0200    constr:    0.0000
     atom:   39    charge:    9.1202    magn:    0.0404    constr:    0.0000
     atom:   40    charge:    9.1218    magn:   -0.0461    constr:    0.0000
     atom:   41    charge:    9.1204    magn:   -0.0107    constr:    0.0000
     atom:   42    charge:    9.1202    magn:   -0.0118    constr:    0.0000
     atom:   43    charge:    9.1204    magn:   -0.0046    constr:    0.0000
     atom:   44    charge:    9.1205    magn:   -0.0083    constr:    0.0000
     atom:   45    charge:    9.1203    magn:   -0.0088    constr:    0.0000
     atom:   46    charge:    9.1210    magn:    0.0104    constr:    0.0000
     atom:   47    charge:    9.1218    magn:    0.0200    constr:    0.0000
     atom:   48    charge:    9.1202    magn:    0.0404    constr:    0.0000
     atom:   49    charge:    9.1218    magn:   -0.0461    constr:    0.0000
     atom:   50    charge:    9.1204    magn:   -0.0107    constr:    0.0000
     atom:   51    charge:    9.1202    magn:   -0.0118    constr:    0.0000
     atom:   52    charge:    9.1204    magn:   -0.0046    constr:    0.0000
     atom:   53    charge:    9.1205    magn:   -0.0083    constr:    0.0000
     atom:   54    charge:    9.1203    magn:   -0.0088    constr:    0.0000

     End of self-consistent calculation

 ------ SPIN UP ------------

          k = 0.0000 0.0000 0.0000 ( 31747 PWs)   bands (ev):

   -66.7846 -66.7632 -66.7433 -66.7393 -66.7307 -66.7266 -66.6115 -66.5821
   -66.5561 -62.4027 -62.3832 -62.3732 -62.3696 -62.3682 -62.3586 -62.3564
   -62.3441 -62.3234 -35.5365 -35.5315 -35.5263 -35.5150 -35.5091 -35.5065
   -35.5046 -35.4952 -35.4892 -35.4872 -35.4827 -35.4805 -35.4793 -35.4756
   -35.4615 -35.4553 -35.4506 -35.4431 -35.3659 -35.3558 -35.3540 -35.3481
   -35.3308 -35.3184 -35.3073 -35.2890 -35.2837 -31.2407 -31.2309 -31.2224
   -31.2157 -31.2135 -31.2132 -31.2087 -31.2058 -31.2046 -31.2015 -31.2004
   -31.1972 -31.1917 -31.1866 -31.1855 -31.1843 -31.1836 -31.1812 -31.1800
   -31.1786 -31.1724 -31.1616 -31.1601 -31.1563 -31.1494 -31.1474 -31.1433
     5.6118   7.1370   7.1671   7.1862   7.2102   7.3614   7.8595   7.8618
     7.9138   7.9495   8.0719   8.1040   8.1353   8.1638   8.1961   8.2315
     8.2606   8.2884   8.3190   8.5213   8.5319   8.5593   8.5723   8.5930
     8.6079   8.8405   8.8642   8.8645   8.8798   8.8837   8.8881   8.9033
     8.9067   8.9074   8.9141   8.9178   8.9264   8.9493   8.9540   8.9789
     8.9950   9.0823   9.1171   9.1198   9.1227   9.1309   9.1578   9.1621
     9.1784   9.2011   9.2147   9.2675   9.2739   9.3014   9.3139   9.3338
     9.3461   9.3524   9.3647   9.3673   9.3829   9.3864   9.4021   9.4255
     9.4400   9.4413   9.4460   9.4488   9.4532   9.4651   9.5088   9.5660
     9.5746   9.5812   9.5847   9.5880   9.6211   9.6633   9.6678   9.6716
     9.6726   9.6748   9.7060   9.7370   9.7572   9.7801   9.7983   9.8494
     9.8500   9.8929   9.9099   9.9287   9.9522   9.9579  10.0189  10.0393
    10.0934  10.1201  10.1301  10.1568  10.2908  10.2919  10.2931  10.2951
    10.2973  10.2988  10.3019  10.3085  10.3100  10.3235  10.3279  10.3424
    10.3480  10.3498  10.3527  10.3548  10.3551  10.3725  10.3823  10.3824
    10.3997  10.5187  10.5196  10.5731  10.6085  10.6095  10.6309  10.6358
    10.6916  10.7611  10.7839  10.7854  10.7897  10.8213  10.8292  10.8379
    10.8427  10.8527  10.8630  10.8685  10.8722  10.8758  10.8797  10.8952
    10.9003  10.9201  10.9972  11.0375  11.0728  11.1082  11.2016  11.2179
    11.2224  11.2273  11.2553  11.2574  11.2792  11.2941  11.3358  11.3385
    11.3643  11.3651  11.3833  11.3901  11.3993  11.4034  11.4080  11.4115
    11.4184  11.4529  11.5871  11.5876  11.5891  11.5952  11.5980  11.6071
    11.6281  11.6708  11.7205  11.7270  11.7320  11.7399  11.7553  11.7861
    11.8320  11.8478  11.8598  11.8688  11.8770  11.8989  11.9326  11.9376
    11.9630  12.0577  12.0983  12.1008  12.1017  12.1029  12.1043  12.1390
    12.1416  12.1440  12.1442  12.1485  12.1526  12.1718  12.1918  12.2177
    12.2458  12.2593  12.3194  12.3209  12.3446  12.3484  12.3659  12.4034
    12.4057  12.4229  12.4341  12.4344  12.4587  12.4806  12.4874  12.4892
    12.5027  12.5199  12.5285  12.5484  12.5735  12.5823  12.5975  12.6250
    12.6815  12.7032  12.7789  12.7841  12.7882  12.8937  12.9942  13.0600
    13.1105  13.1373  13.2152  13.3168  13.3544  13.6612  13.7109  13.7311
    13.8825  14.0079  14.2352  14.2475  14.3106  14.3405  14.4338  14.4364
    14.7314  14.7740  14.7821  15.0184  15.1175  15.1619  15.2068  15.2569
    15.2653  15.2863  15.3105  15.3368  15.3797  15.4455  15.4875  15.5644
    15.6561  15.6852  15.7067  15.8169  15.8690  15.8849  15.9152  15.9375
    16.0033  16.0618  16.0790  16.1301  16.1357  16.1545  16.1597  16.1671
    16.2570  16.2711  16.2793  16.2960  16.3259  16.3385  16.3778  16.3901
    16.4431  16.4871  16.5186  16.5727  16.6141  16.6733  16.7797  16.8927
    17.0254  17.0463  17.0919  17.1660  17.1902  17.2432  17.2689  17.2846
    17.4351  17.5290  17.8850  17.8982  17.9192  17.9498  17.9514  18.1914
    18.2445  18.3191  18.4477  18.9461  19.0000  19.0035  19.0686  19.1780

[...]

          k =-0.5000-0.5000 0.0000 ( 31612 PWs)   bands (ev):

[...]

 ------ SPIN DOWN ----------

[...]

          k = 0.0000-0.5000-0.5734 ( 31696 PWs)   bands (ev):

[...]

          k =-0.5000 0.0000 0.5734 ( 31696 PWs)   bands (ev):

   -66.7683 -66.7219 -66.7001 -66.6933 -66.6716 -66.6350 -66.6175 -66.5962
   -66.5928 -62.4087 -62.4013 -62.3968 -62.3932 -62.3896 -62.3816 -62.3169
   -62.3000 -62.2948 -35.5286 -35.5118 -35.4929 -35.4879 -35.4711 -35.4709
   -35.4630 -35.4430 -35.4374 -35.4370 -35.4351 -35.4284 -35.4145 -35.4043
   -35.4015 -35.3966 -35.3740 -35.3736 -35.3625 -35.3574 -35.3480 -35.3470
   -35.3413 -35.3412 -35.3401 -35.3317 -35.3291 -31.2452 -31.2425 -31.2372
   -31.2335 -31.2327 -31.2272 -31.2262 -31.2260 -31.2248 -31.2207 -31.2166
   -31.2137 -31.2133 -31.2076 -31.2024 -31.1993 -31.1953 -31.1944 -31.1533
   -31.1524 -31.1479 -31.1439 -31.1281 -31.1254 -31.1161 -31.1016 -31.1009
     6.5271   6.5491   6.6260   6.6447   7.8340   7.8605   7.8627   7.8690
     7.9092   7.9158   7.9284   7.9512   8.2714   8.2780   8.3020   8.3049
     8.5173   8.5256   8.5328   8.5359   8.6663   8.6726   8.6746   8.6757
     8.6860   8.7014   8.7122   8.7263   8.7311   8.7368   8.7503   8.7536
     8.7564   8.7848   8.7876   8.7901   8.9534   8.9693   9.0371   9.0428
     9.0432   9.0480   9.0570   9.0595   9.1912   9.2063   9.2140   9.2169
     9.2225   9.2292   9.2358   9.2389   9.2438   9.2473   9.2501   9.2577
     9.2605   9.2654   9.2762   9.2795   9.3035   9.3447   9.3830   9.4064
     9.4170   9.4279   9.4520   9.4566   9.4653   9.4671   9.4692   9.4892
     9.5054   9.5193   9.5209   9.5314   9.5318   9.5460   9.5549   9.5602
     9.5819   9.5977   9.7551   9.7572   9.7953   9.8134   9.8177   9.8214
     9.8230   9.8408   9.8461   9.8505   9.8568   9.8619   9.8673   9.8807
     9.9389   9.9452  10.0170  10.0273  10.0334  10.0470  10.0526  10.0533
    10.3602  10.3765  10.3895  10.3918  10.4070  10.4140  10.4318  10.4403
    10.4515  10.4521  10.4724  10.4759  10.4779  10.4815  10.4912  10.5150
    10.5310  10.5637  10.5691  10.5782  10.5798  10.5910  10.6424  10.6498
    10.6561  10.6590  10.6804  10.6828  10.6923  10.7012  10.7138  10.7270
    10.7700  10.7904  10.8618  10.8796  10.9766  10.9876  11.0304  11.0329
    11.1134  11.1206  11.1477  11.1858  11.1922  11.1938  11.1957  11.2071
    11.2124  11.2137  11.2966  11.2988  11.3427  11.3479  11.3690  11.3811
    11.3847  11.3979  11.4219  11.4479  11.4496  11.4527  11.4874  11.4986
    11.5671  11.5707  11.5823  11.5836  11.5920  11.6126  11.6184  11.6215
    11.6240  11.6275  11.7326  11.7462  11.7463  11.7714  11.7833  11.8814
    11.8894  11.9092  11.9268  11.9379  11.9670  11.9951  12.0046  12.0138
    12.0216  12.0270  12.0300  12.0401  12.0420  12.0432  12.0572  12.0904
    12.2250  12.2356  12.2621  12.2749  12.2794  12.2934  12.3068  12.3299
    12.3432  12.3477  12.3665  12.3725  12.4097  12.4406  12.4427  12.4752
    12.4850  12.4969  12.5006  12.5175  12.5529  12.5619  12.5725  12.6110
    12.6160  12.6401  12.6450  12.6538  12.6542  12.7017  12.7391  12.7667
    12.7792  12.8445  12.9324  12.9836  12.9998  13.0425  13.0858  13.1309
    13.2212  13.2590  13.3594  13.4553  13.4720  13.5561  13.6085  13.9165
    13.9580  13.9769  14.0492  14.0789  14.1540  14.2794  14.3091  14.4160
    14.4225  14.5511  14.5606  14.5758  14.6306  14.7532  14.7700  15.0729
    15.0855  15.1356  15.2009  15.3824  15.3940  15.4214  15.4326  15.4733
    15.4818  15.6646  15.7159  15.7299  15.8365  15.9379  15.9687  16.0250
    16.0475  16.0639  16.1043  16.1499  16.1559  16.2205  16.2262  16.2450
    16.2871  16.3087  16.3508  16.3909  16.3932  16.4064  16.4101  16.4240
    16.4278  16.4449  16.4842  16.5697  16.5705  16.6166  16.6943  16.7416
    16.7865  16.8037  16.8395  16.8595  16.9098  16.9660  16.9772  17.0034
    17.0483  17.0710  17.1619  17.2666  18.6656  18.6959  18.7175  18.7534
    18.7812  18.7877  18.8002  18.8457  18.8772  18.8995  18.9162  18.9170

     the Fermi energy is    14.8204 ev

!    total energy              =  -33062.59190854 Ry
     Harris-Foulkes estimate   =  -33062.59188967 Ry
     estimated scf accuracy    <       0.00000071 Ry

     total all-electron energy =  -1410574.682283 Ry

     The total energy is the sum of the following terms:

     one-electron contribution =   -1645.68079287 Ry
     hartree contribution      =    1489.89784000 Ry
     xc contribution           =   -1658.73981301 Ry
     ewald contribution        =   -4919.25534656 Ry
     one-center paw contrib.   =  -26328.81379609 Ry

     total magnetization       =     0.49 Bohr mag/cell
     absolute magnetization    =    78.61 Bohr mag/cell

     convergence has been achieved in  21 iterations

     Writing output data file mnau2.save

     General routines

     Parallel routines

   This run was terminated on:   5:57: 3   8Mar2019

   JOB DONE.