     Program PWSCF v.6.2 (svn rev. 14038) starts on  4Mar2019 at  9: 1: 5

     R & G space division:  proc/nbgrp/npool/nimage =      16
     Waiting for input...
     Reading input from standard input

     Current dimensions of program PWSCF are:
     Max number of different atomic species (ntypx) = 10
     Max number of k-points (npk) =  40000
     Max angular momentum in pseudopotentials (lmaxx) =  3
               file Mn.pbe-spn-kjpaw_psl.0.3.1.UPF: wavefunction(s)  3P 3D renormalized
               file Mn.pbe-spn-kjpaw_psl.0.3.1.UPF: wavefunction(s)  3P 3D renormalized
               file Au.pbe-dn-kjpaw_psl.0.1.UPF: wavefunction(s)  6S 6P 5D renormalized

     Subspace diagonalization in iterative solution of the eigenvalue problem:
     a serial algorithm will be used

     bravais-lattice index     =            0
     lattice parameter (alat)  =      19.2459  a.u.
     unit-cell volume          =    6216.1497 (a.u.)^3
     number of atoms/cell      =           54
     number of atomic types    =            3
     number of electrons       =       666.00
     number of Kohn-Sham states=          400
     kinetic-energy cutoff     =      45.0000  Ry
     charge density cutoff     =     400.0000  Ry
     convergence threshold     =      1.0E-06
     mixing beta               =       0.1000
     number of iterations used =            8  plain     mixing
     Exchange-correlation      = SLA PW PBX PBC ( 1  4  3  4 0 0)

     celldm(1)=  19.245946  celldm(2)=   0.000000  celldm(3)=   0.000000
     celldm(4)=   0.000000  celldm(5)=   0.000000  celldm(6)=   0.000000

     crystal axes: (cart. coord. in units of alat)
               a(1) = (   1.000000   0.000000   0.000000 )
               a(2) = (   0.000000   1.000000   0.000000 )
               a(3) = (   0.000000   0.000000   0.871974 )

     reciprocal axes: (cart. coord. in units 2 pi/alat)
               b(1) = (  1.000000  0.000000  0.000000 )
               b(2) = (  0.000000  1.000000  0.000000 )
               b(3) = (  0.000000  0.000000  1.146823 )

     PseudoPot. # 1 for Mn read from file:
     ./pseudo/Mn.pbe-spn-kjpaw_psl.0.3.1.UPF
     MD5 check sum: 7eef95dd2aae66803482eea66ebeebf1
     Pseudo is Projector augmented-wave + core cor, Zval = 15.0
     Generated using "atomic" code by A. Dal Corso v.5.0.99 svn rev. 10869
     Shape of augmentation charge: PSQ
     Using radial grid of 1187 points,  6 beta functions with:
                l(1) =   0
                l(2) =   0
                l(3) =   1
                l(4) =   1
                l(5) =   2
                l(6) =   2
     Q(r) pseudized with 0 coefficients

     PseudoPot. # 2 for Mn read from file:
     ./pseudo/Mn.pbe-spn-kjpaw_psl.0.3.1.UPF
     MD5 check sum: 7eef95dd2aae66803482eea66ebeebf1
     Pseudo is Projector augmented-wave + core cor, Zval = 15.0
     Generated using "atomic" code by A. Dal Corso v.5.0.99 svn rev. 10869
     Shape of augmentation charge: PSQ
     Using radial grid of 1187 points,  6 beta functions with:
                l(1) =   0
                l(2) =   0
                l(3) =   1
                l(4) =   1
                l(5) =   2
                l(6) =   2
     Q(r) pseudized with 0 coefficients

     PseudoPot. # 3 for Au read from file:
     ./pseudo/Au.pbe-dn-kjpaw_psl.0.1.UPF
     MD5 check sum: 5c9b92683623e7ae2ab3f8e525febab6
     Pseudo is Projector augmented-wave + core cor, Zval = 11.0
     Generated using "atomic" code by A. Dal Corso v.5.0.2 svn rev. 9415
     Shape of augmentation charge: PSQ
     Using radial grid of 1279 points,  6 beta functions with:
                l(1) =   0
                l(2) =   0
                l(3) =   1
                l(4) =   1
                l(5) =   2
                l(6) =   2
     Q(r) pseudized with 0 coefficients

     atomic species   valence    mass     pseudopotential
        Mn1           15.00    54.93800     Mn( 1.00)
        Mn2           15.00    54.93800     Mn( 1.00)
        Au            11.00   196.96600     Au( 1.00)

     Starting magnetic structure
     atomic species   magnetization
        Mn1          0.800
        Mn2         -0.800
        Au           0.000

      2 Sym. Ops. (no inversion) found

   Cartesian axes

     site n.     atom                  positions (alat units)
         1           Mn1 tau(   1) = (   0.0000000   0.0000000   0.0000000  )
         2           Mn1 tau(   2) = (   0.0000000   0.3333300   0.0000000  )
         3           Mn1 tau(   3) = (   0.0000000   0.6666700   0.0000000  )
         4           Mn1 tau(   4) = (   0.3333300   0.0000000   0.0000000  )
         5           Mn1 tau(   5) = (   0.3333300   0.3333300   0.0000000  )
         6           Mn2 tau(   6) = (   0.3333300   0.6666700   0.0000000  )
         7           Mn2 tau(   7) = (   0.6666700   0.0000000   0.0000000  )
         8           Mn1 tau(   8) = (   0.6666700   0.3333300   0.0000000  )
         9           Mn2 tau(   9) = (   0.6666700   0.6666700   0.0000000  )
        10           Mn2 tau(  10) = (   0.1666700   0.1666700   0.4359871  )
        11           Mn2 tau(  11) = (   0.1666700   0.5000000   0.4359871  )
        12           Mn2 tau(  12) = (   0.1666700   0.8333300   0.4359871  )
        13           Mn2 tau(  13) = (   0.5000000   0.1666700   0.4359871  )
        14           Mn2 tau(  14) = (   0.5000000   0.5000000   0.4359871  )
        15           Mn1 tau(  15) = (   0.5000000   0.8333300   0.4359871  )
        16           Mn1 tau(  16) = (   0.8333300   0.1666700   0.4359871  )
        17           Mn2 tau(  17) = (   0.8333300   0.5000000   0.4359871  )
        18           Mn1 tau(  18) = (   0.8333300   0.8333300   0.4359871  )
        19           Au  tau(  19) = (   0.1666700   0.1666700   0.7327374  )
        20           Au  tau(  20) = (   0.1666700   0.5000000   0.7327374  )
        21           Au  tau(  21) = (   0.1666700   0.8333300   0.7327374  )
        22           Au  tau(  22) = (   0.5000000   0.1666700   0.7327374  )
        23           Au  tau(  23) = (   0.5000000   0.5000000   0.7327374  )
        24           Au  tau(  24) = (   0.5000000   0.8333300   0.7327374  )
        25           Au  tau(  25) = (   0.8333300   0.1666700   0.7327374  )
        26           Au  tau(  26) = (   0.8333300   0.5000000   0.7327374  )
        27           Au  tau(  27) = (   0.8333300   0.8333300   0.7327374  )
        28           Au  tau(  28) = (   0.1666700   0.1666700   0.1392369  )
        29           Au  tau(  29) = (   0.1666700   0.5000000   0.1392369  )
        30           Au  tau(  30) = (   0.1666700   0.8333300   0.1392369  )
        31           Au  tau(  31) = (   0.5000000   0.1666700   0.1392369  )
        32           Au  tau(  32) = (   0.5000000   0.5000000   0.1392369  )
        33           Au  tau(  33) = (   0.5000000   0.8333300   0.1392369  )
        34           Au  tau(  34) = (   0.8333300   0.1666700   0.1392369  )
        35           Au  tau(  35) = (   0.8333300   0.5000000   0.1392369  )
        36           Au  tau(  36) = (   0.8333300   0.8333300   0.1392369  )
        37           Au  tau(  37) = (   0.0000000   0.0000000   0.2967503  )
        38           Au  tau(  38) = (   0.0000000   0.3333300   0.2967503  )
        39           Au  tau(  39) = (   0.0000000   0.6666700   0.2967503  )
        40           Au  tau(  40) = (   0.3333300   0.0000000   0.2967503  )
        41           Au  tau(  41) = (   0.3333300   0.3333300   0.2967503  )
        42           Au  tau(  42) = (   0.3333300   0.6666700   0.2967503  )
        43           Au  tau(  43) = (   0.6666700   0.0000000   0.2967503  )
        44           Au  tau(  44) = (   0.6666700   0.3333300   0.2967503  )
        45           Au  tau(  45) = (   0.6666700   0.6666700   0.2967503  )
        46           Au  tau(  46) = (   0.0000000   0.0000000   0.5752240  )
        47           Au  tau(  47) = (   0.0000000   0.3333300   0.5752240  )
        48           Au  tau(  48) = (   0.0000000   0.6666700   0.5752240  )
        49           Au  tau(  49) = (   0.3333300   0.0000000   0.5752240  )
        50           Au  tau(  50) = (   0.3333300   0.3333300   0.5752240  )
        51           Au  tau(  51) = (   0.3333300   0.6666700   0.5752240  )
        52           Au  tau(  52) = (   0.6666700   0.0000000   0.5752240  )
        53           Au  tau(  53) = (   0.6666700   0.3333300   0.5752240  )
        54           Au  tau(  54) = (   0.6666700   0.6666700   0.5752240  )

     number of k points=     8 (tetrahedron method)
                       cart. coord. in units 2pi/alat
        k(    1) = (   0.0000000   0.0000000   0.0000000), wk =   0.1250000
        k(    2) = (   0.0000000   0.0000000  -0.5734114), wk =   0.1250000
        k(    3) = (   0.0000000  -0.5000000   0.0000000), wk =   0.1250000
        k(    4) = (   0.0000000  -0.5000000  -0.5734114), wk =   0.1250000
        k(    5) = (  -0.5000000  -0.5000000   0.0000000), wk =   0.1250000
        k(    6) = (  -0.5000000  -0.5000000  -0.5734114), wk =   0.1250000
        k(    7) = (  -0.5000000   0.0000000   0.0000000), wk =   0.1250000
        k(    8) = (  -0.5000000   0.0000000   0.5734114), wk =   0.1250000

     Check: negative/imaginary core charge=   -0.000006    0.000000

     Initial potential from superposition of free atoms

     starting charge  665.98709, renormalised to  666.00000
     Starting wfc are  504 randomized atomic wfcs
     Checking if some PAW data can be deallocated...

     Self-consistent Calculation

     iteration #  1     ecut=    45.00 Ry     beta= 0.10
     Davidson diagonalization with overlap
     ethr =  1.00E-02,  avg # of iterations =  3.2

     total energy              =  -33047.19327829 Ry
     Harris-Foulkes estimate   =  -33044.04325291 Ry
     estimated scf accuracy    <      27.03933599 Ry

     total magnetization       =    -0.00 Bohr mag/cell
     absolute magnetization    =    92.09 Bohr mag/cell

[...]

     total energy              =  -33062.60546784 Ry
     Harris-Foulkes estimate   =  -33062.60546030 Ry
     estimated scf accuracy    <       0.00000278 Ry

[...]

     iteration # 20     ecut=    45.00 Ry     beta= 0.10
     Davidson diagonalization with overlap
     ethr =  4.17E-10,  avg # of iterations =  2.9

     Magnetic moment per site:
     atom:    1    charge:   13.5816    magn:    3.9539    constr:    0.0000
     atom:    2    charge:   13.5718    magn:    4.0200    constr:    0.0000
     atom:    3    charge:   13.5800    magn:    3.9770    constr:    0.0000
     atom:    4    charge:   13.5773    magn:    4.0142    constr:    0.0000
     atom:    5    charge:   13.5684    magn:    4.0519    constr:    0.0000
     atom:    6    charge:   13.5850    magn:   -3.9629    constr:    0.0000
     atom:    7    charge:   13.5697    magn:   -4.0802    constr:    0.0000
     atom:    8    charge:   13.5777    magn:    3.9885    constr:    0.0000
     atom:    9    charge:   13.5747    magn:   -4.0108    constr:    0.0000
     atom:   10    charge:   13.5684    magn:   -4.0519    constr:    0.0000
     atom:   11    charge:   13.5718    magn:   -4.0200    constr:    0.0000
     atom:   12    charge:   13.5779    magn:   -3.9885    constr:    0.0000
     atom:   13    charge:   13.5773    magn:   -4.0142    constr:    0.0000
     atom:   14    charge:   13.5814    magn:   -3.9538    constr:    0.0000
     atom:   15    charge:   13.5697    magn:    4.0802    constr:    0.0000
     atom:   16    charge:   13.5850    magn:    3.9630    constr:    0.0000
     atom:   17    charge:   13.5799    magn:   -3.9770    constr:    0.0000
     atom:   18    charge:   13.5748    magn:    4.0108    constr:    0.0000
     atom:   19    charge:    9.1202    magn:    0.0480    constr:    0.0000
     atom:   20    charge:    9.1212    magn:    0.0132    constr:    0.0000
     atom:   21    charge:    9.1201    magn:    0.0178    constr:    0.0000
     atom:   22    charge:    9.1213    magn:    0.0206    constr:    0.0000
     atom:   23    charge:    9.1202    magn:   -0.0076    constr:    0.0000
     atom:   24    charge:    9.1225    magn:   -0.0155    constr:    0.0000
     atom:   25    charge:    9.1202    magn:    0.0379    constr:    0.0000
     atom:   26    charge:    9.1198    magn:    0.0198    constr:    0.0000
     atom:   27    charge:    9.1214    magn:    0.0116    constr:    0.0000
     atom:   28    charge:    9.1202    magn:    0.0480    constr:    0.0000
     atom:   29    charge:    9.1212    magn:    0.0132    constr:    0.0000
     atom:   30    charge:    9.1201    magn:    0.0178    constr:    0.0000
     atom:   31    charge:    9.1213    magn:    0.0206    constr:    0.0000
     atom:   32    charge:    9.1202    magn:   -0.0076    constr:    0.0000
     atom:   33    charge:    9.1225    magn:   -0.0155    constr:    0.0000
     atom:   34    charge:    9.1202    magn:    0.0379    constr:    0.0000
     atom:   35    charge:    9.1198    magn:    0.0198    constr:    0.0000
     atom:   36    charge:    9.1214    magn:    0.0116    constr:    0.0000
     atom:   37    charge:    9.1204    magn:    0.0075    constr:    0.0000
     atom:   38    charge:    9.1213    magn:   -0.0132    constr:    0.0000
     atom:   39    charge:    9.1199    magn:   -0.0198    constr:    0.0000
     atom:   40    charge:    9.1214    magn:   -0.0206    constr:    0.0000
     atom:   41    charge:    9.1201    magn:   -0.0480    constr:    0.0000
     atom:   42    charge:    9.1201    magn:   -0.0379    constr:    0.0000
     atom:   43    charge:    9.1226    magn:    0.0155    constr:    0.0000
     atom:   44    charge:    9.1200    magn:   -0.0178    constr:    0.0000
     atom:   45    charge:    9.1213    magn:   -0.0116    constr:    0.0000
     atom:   46    charge:    9.1204    magn:    0.0075    constr:    0.0000
     atom:   47    charge:    9.1213    magn:   -0.0132    constr:    0.0000
     atom:   48    charge:    9.1199    magn:   -0.0198    constr:    0.0000
     atom:   49    charge:    9.1214    magn:   -0.0206    constr:    0.0000
     atom:   50    charge:    9.1201    magn:   -0.0480    constr:    0.0000
     atom:   51    charge:    9.1201    magn:   -0.0379    constr:    0.0000
     atom:   52    charge:    9.1226    magn:    0.0155    constr:    0.0000
     atom:   53    charge:    9.1200    magn:   -0.0178    constr:    0.0000
     atom:   54    charge:    9.1213    magn:   -0.0116    constr:    0.0000

     End of self-consistent calculation

 ------ SPIN UP ------------

          k = 0.0000 0.0000 0.0000 ( 31747 PWs)   bands (ev):

   -66.7867 -66.7459 -66.7442 -66.6838 -66.6689 -66.6637 -66.6371 -66.6029
   -66.5527 -62.4201 -62.4093 -62.3734 -62.3646 -62.3576 -62.3524 -62.3406
   -62.3391 -62.2865 -35.5459 -35.5239 -35.5174 -35.5077 -35.4988 -35.4958
   -35.4947 -35.4683 -35.4624 -35.4436 -35.4262 -35.4256 -35.4231 -35.4205
   -35.4126 -35.4113 -35.3984 -35.3929 -35.3921 -35.3880 -35.3597 -35.3520
   -35.3469 -35.3338 -35.3136 -35.2948 -35.2873 -31.2581 -31.2525 -31.2476
   -31.2330 -31.2265 -31.2261 -31.2172 -31.2046 -31.1977 -31.1953 -31.1942
   -31.1928 -31.1806 -31.1799 -31.1782 -31.1782 -31.1767 -31.1732 -31.1725
   -31.1670 -31.1627 -31.1586 -31.1561 -31.1445 -31.1364 -31.1115 -31.0919
     5.6148   7.1545   7.1563   7.1979   7.2010   7.3643   7.8574   7.8870
     7.9158   7.9395   8.0868   8.1004   8.1409   8.1606   8.1907   8.2468
     8.2520   8.3032   8.3065   8.5184   8.5566   8.5601   8.5691   8.5950
     8.5995   8.8543   8.8601   8.8603   8.8817   8.8920   8.8947   8.8988
     8.9020   8.9043   8.9106   8.9230   8.9346   8.9606   8.9640   8.9731
     8.9833   9.0838   9.1201   9.1215   9.1284   9.1358   9.1550   9.1573
     9.1864   9.1974   9.2085   9.2656   9.2860   9.2966   9.3087   9.3587
     9.3627   9.3669   9.3700   9.3733   9.3757   9.3823   9.3934   9.4312
     9.4398   9.4460   9.4494   9.4536   9.4671   9.4707   9.4852   9.5790
     9.5815   9.5887   9.5900   9.5937   9.6017   9.6666   9.6689   9.6735
     9.6761   9.6769   9.6854   9.7394   9.7624   9.7711   9.8007   9.8498
     9.8505   9.9080   9.9094   9.9490   9.9519   9.9533  10.0077  10.0293
    10.1137  10.1309  10.1396  10.1506  10.2897  10.2919  10.2960  10.3001
    10.3028  10.3033  10.3067  10.3087  10.3093  10.3279  10.3429  10.3445
    10.3451  10.3464  10.3517  10.3562  10.3597  10.3687  10.3830  10.3839
    10.4007  10.5102  10.5201  10.5776  10.5980  10.6305  10.6384  10.6538
    10.6752  10.7850  10.7870  10.8133  10.8165  10.8193  10.8278  10.8418
    10.8450  10.8536  10.8579  10.8726  10.8742  10.8786  10.8855  10.8907
    10.9024  10.9222  11.0181  11.0217  11.0905  11.0924  11.2121  11.2222
    11.2240  11.2254  11.2761  11.2846  11.3004  11.3283  11.3539  11.3545
    11.3569  11.3741  11.3819  11.3836  11.3924  11.3942  11.4033  11.4105
    11.4162  11.4462  11.5506  11.5896  11.5919  11.5956  11.5981  11.6012
    11.6301  11.6788  11.7011  11.7024  11.7270  11.7302  11.7448  11.7484
    11.8327  11.8358  11.8465  11.8651  11.8708  11.9159  11.9273  11.9503
    11.9603  12.0152  12.0893  12.0995  12.1016  12.1018  12.1061  12.1429
    12.1451  12.1472  12.1485  12.1636  12.1694  12.1714  12.1848  12.2192
    12.2369  12.2441  12.3119  12.3199  12.3445  12.3693  12.3818  12.4080
    12.4313  12.4342  12.4394  12.4790  12.4911  12.4960  12.5041  12.5060
    12.5239  12.5255  12.5368  12.5571  12.5725  12.6169  12.6292  12.7010
    12.7105  12.7472  12.7488  12.7595  12.9768  13.0002  13.0633  13.0785
    13.1310  13.1370  13.1775  13.1927  13.3377  13.7694  13.7825  13.7885
    13.8220  13.9412  13.9602  14.2461  14.2777  14.3160  14.3381  14.5091
    14.8019  14.8629  14.9348  14.9891  15.0024  15.1160  15.1636  15.2476
    15.2773  15.3539  15.3553  15.3722  15.4780  15.4941  15.5209  15.5807
    15.6267  15.6470  15.6805  15.7890  15.8375  15.8449  15.9514  15.9804
    16.0450  16.0784  16.0919  16.1046  16.1296  16.1552  16.1844  16.1874
    16.2200  16.2604  16.2978  16.3001  16.3205  16.3536  16.3646  16.3811
    16.4306  16.5374  16.5581  16.6169  16.6556  16.6566  16.7276  16.8574
    16.9958  17.0309  17.1738  17.1988  17.2045  17.2302  17.2378  17.2552
    17.4971  17.5245  17.8667  17.9171  17.9245  17.9314  17.9672  18.1147
    18.2287  18.2794  18.3609  18.9755  19.0045  19.0320  19.1785  19.2188

[...]

          k =-0.5000-0.5000 0.0000 ( 31612 PWs)   bands (ev):

[...]

 ------ SPIN DOWN ----------

[...]

          k = 0.0000-0.5000-0.5734 ( 31696 PWs)   bands (ev):

[...]

          k =-0.5000 0.0000 0.5734 ( 31696 PWs)   bands (ev):

   -66.7867 -66.7459 -66.7441 -66.6840 -66.6690 -66.6636 -66.6370 -66.6030
   -66.5530 -62.4202 -62.4091 -62.3732 -62.3645 -62.3577 -62.3526 -62.3408
   -62.3390 -62.2862 -35.5459 -35.5238 -35.5173 -35.5076 -35.4989 -35.4958
   -35.4947 -35.4684 -35.4623 -35.4437 -35.4264 -35.4256 -35.4232 -35.4204
   -35.4127 -35.4112 -35.3983 -35.3928 -35.3920 -35.3880 -35.3597 -35.3519
   -35.3470 -35.3339 -35.3138 -35.2951 -35.2875 -31.2584 -31.2529 -31.2470
   -31.2327 -31.2266 -31.2260 -31.2170 -31.2048 -31.1977 -31.1952 -31.1941
   -31.1929 -31.1807 -31.1800 -31.1782 -31.1781 -31.1766 -31.1732 -31.1724
   -31.1671 -31.1628 -31.1588 -31.1562 -31.1444 -31.1360 -31.1112 -31.0916
     6.5187   6.5781   6.5937   6.6443   7.8329   7.8434   7.8566   7.8722
     7.9104   7.9223   7.9321   7.9462   8.2667   8.2780   8.2978   8.3042
     8.5099   8.5228   8.5354   8.5374   8.6572   8.6743   8.6800   8.6868
     8.6883   8.6906   8.7014   8.7115   8.7187   8.7398   8.7425   8.7499
     8.7535   8.7736   8.7814   8.8168   8.9432   9.0048   9.0076   9.0314
     9.0388   9.0519   9.0555   9.0695   9.1746   9.2030   9.2128   9.2155
     9.2219   9.2226   9.2296   9.2332   9.2453   9.2460   9.2509   9.2520
     9.2651   9.2727   9.2816   9.2858   9.2958   9.3579   9.3811   9.4044
     9.4073   9.4226   9.4518   9.4589   9.4625   9.4674   9.4677   9.4791
     9.4825   9.4970   9.5126   9.5234   9.5243   9.5507   9.5540   9.5578
     9.5675   9.6118   9.7527   9.7589   9.7881   9.7933   9.8085   9.8152
     9.8346   9.8353   9.8523   9.8532   9.8572   9.8615   9.8636   9.8856
     9.9470   9.9634   9.9976  10.0028  10.0332  10.0409  10.0559  10.0630
    10.3557  10.3771  10.3880  10.3919  10.4042  10.4175  10.4298  10.4316
    10.4650  10.4771  10.4784  10.4797  10.4825  10.4908  10.4962  10.5128
    10.5398  10.5583  10.5638  10.5795  10.5915  10.5957  10.6177  10.6258
    10.6652  10.6661  10.6746  10.6765  10.6768  10.6847  10.7119  10.7187
    10.7388  10.8212  10.8486  10.8713  10.9729  10.9908  11.0255  11.0814
    11.1140  11.1302  11.1366  11.1557  11.1812  11.1862  11.1916  11.2029
    11.2101  11.2130  11.2786  11.3385  11.3438  11.3449  11.3623  11.3741
    11.3785  11.3921  11.4100  11.4143  11.4440  11.4800  11.4884  11.5153
    11.5190  11.5544  11.5668  11.5687  11.5761  11.5782  11.6087  11.6146
    11.6385  11.6417  11.7153  11.7204  11.7537  11.7607  11.7952  11.8394
    11.8842  11.9116  11.9135  11.9472  11.9634  11.9685  12.0028  12.0034
    12.0151  12.0210  12.0293  12.0352  12.0381  12.0421  12.1101  12.1191
    12.1597  12.1723  12.1986  12.2201  12.2550  12.2961  12.2968  12.3517
    12.3621  12.3687  12.3870  12.4008  12.4418  12.4502  12.4568  12.4903
    12.5011  12.5083  12.5130  12.5131  12.5202  12.5528  12.5805  12.5811
    12.6359  12.6383  12.6445  12.6557  12.7070  12.7082  12.7612  12.7940
    12.8440  12.8500  12.9385  12.9439  12.9823  12.9977  13.0262  13.0394
    13.1891  13.2567  13.4131  13.5201  13.5315  13.6698  13.7098  13.7528
    13.9029  14.0165  14.0193  14.0949  14.1059  14.1440  14.2185  14.3104
    14.3354  14.5391  14.5675  14.5797  14.5827  14.7054  14.7572  15.0152
    15.0797  15.2717  15.3018  15.3359  15.3645  15.4497  15.5243  15.5575
    15.6286  15.6652  15.7612  15.7696  15.8640  15.8701  15.9222  16.0148
    16.0572  16.1022  16.1075  16.1585  16.1640  16.1777  16.2217  16.2331
    16.2596  16.2852  16.3052  16.3130  16.3284  16.3643  16.3645  16.4634
    16.5035  16.5652  16.5670  16.5946  16.6307  16.6463  16.6956  16.7011
    16.7634  16.7692  16.8162  16.8717  16.8786  16.8999  16.9875  16.9878
    17.0821  17.1543  17.1557  17.2206  18.6001  18.6937  18.7113  18.7375
    18.7467  18.7784  18.7897  18.8489  18.8930  18.9089  18.9533  19.0052

     the Fermi energy is    14.8166 ev

!    total energy              =  -33062.60548009 Ry
     Harris-Foulkes estimate   =  -33062.60545663 Ry
     estimated scf accuracy    <       0.00000098 Ry

     total all-electron energy =  -1410574.695854 Ry

     The total energy is the sum of the following terms:

     one-electron contribution =   -1645.73150953 Ry
     hartree contribution      =    1489.93170493 Ry
     xc contribution           =   -1658.74198552 Ry
     ewald contribution        =   -4919.25534656 Ry
     one-center paw contrib.   =  -26328.80834341 Ry

     total magnetization       =     0.00 Bohr mag/cell
     absolute magnetization    =    78.65 Bohr mag/cell

     convergence has been achieved in  20 iterations

     Writing output data file mnau2.save

     General routines

     Parallel routines

   This run was terminated on:   9:53:26   4Mar2019

   JOB DONE.