     Program PWSCF v.6.2 (svn rev. 14038) starts on  8Mar2019 at 12: 8:51

     R & G space division:  proc/nbgrp/npool/nimage =      16
     Waiting for input...
     Reading input from standard input

     Current dimensions of program PWSCF are:
     Max number of different atomic species (ntypx) = 10
     Max number of k-points (npk) =  40000
     Max angular momentum in pseudopotentials (lmaxx) =  3
               file Mn.pbe-spn-kjpaw_psl.0.3.1.UPF: wavefunction(s)  3P 3D renormalized
               file Mn.pbe-spn-kjpaw_psl.0.3.1.UPF: wavefunction(s)  3P 3D renormalized
               file Au.pbe-dn-kjpaw_psl.0.1.UPF: wavefunction(s)  6S 6P 5D renormalized

     Subspace diagonalization in iterative solution of the eigenvalue problem:
     a serial algorithm will be used

     Found symmetry operation: I + ( -0.3333 -0.3333  0.0000)
     This is a supercell, fractional translations are disabled

     bravais-lattice index     =            0
     lattice parameter (alat)  =      19.2459  a.u.
     unit-cell volume          =    6216.1497 (a.u.)^3
     number of atoms/cell      =           54
     number of atomic types    =            3
     number of electrons       =       666.00
     number of Kohn-Sham states=          400
     kinetic-energy cutoff     =      45.0000  Ry
     charge density cutoff     =     400.0000  Ry
     convergence threshold     =      1.0E-06
     mixing beta               =       0.1000
     number of iterations used =            8  plain     mixing
     Exchange-correlation      = SLA PW PBX PBC ( 1  4  3  4 0 0)

     celldm(1)=  19.245946  celldm(2)=   0.000000  celldm(3)=   0.000000
     celldm(4)=   0.000000  celldm(5)=   0.000000  celldm(6)=   0.000000

     crystal axes: (cart. coord. in units of alat)
               a(1) = (   1.000000   0.000000   0.000000 )
               a(2) = (   0.000000   1.000000   0.000000 )
               a(3) = (   0.000000   0.000000   0.871974 )

     reciprocal axes: (cart. coord. in units 2 pi/alat)
               b(1) = (  1.000000  0.000000  0.000000 )
               b(2) = (  0.000000  1.000000  0.000000 )
               b(3) = (  0.000000  0.000000  1.146823 )

     PseudoPot. # 1 for Mn read from file:
     ./pseudo/Mn.pbe-spn-kjpaw_psl.0.3.1.UPF
     MD5 check sum: 7eef95dd2aae66803482eea66ebeebf1
     Pseudo is Projector augmented-wave + core cor, Zval = 15.0
     Generated using "atomic" code by A. Dal Corso v.5.0.99 svn rev. 10869
     Shape of augmentation charge: PSQ
     Using radial grid of 1187 points,  6 beta functions with:
                l(1) =   0
                l(2) =   0
                l(3) =   1
                l(4) =   1
                l(5) =   2
                l(6) =   2
     Q(r) pseudized with 0 coefficients

     PseudoPot. # 2 for Mn read from file:
     ./pseudo/Mn.pbe-spn-kjpaw_psl.0.3.1.UPF
     MD5 check sum: 7eef95dd2aae66803482eea66ebeebf1
     Pseudo is Projector augmented-wave + core cor, Zval = 15.0
     Generated using "atomic" code by A. Dal Corso v.5.0.99 svn rev. 10869
     Shape of augmentation charge: PSQ
     Using radial grid of 1187 points,  6 beta functions with:
                l(1) =   0
                l(2) =   0
                l(3) =   1
                l(4) =   1
                l(5) =   2
                l(6) =   2
     Q(r) pseudized with 0 coefficients

     PseudoPot. # 3 for Au read from file:
     ./pseudo/Au.pbe-dn-kjpaw_psl.0.1.UPF
     MD5 check sum: 5c9b92683623e7ae2ab3f8e525febab6
     Pseudo is Projector augmented-wave + core cor, Zval = 11.0
     Generated using "atomic" code by A. Dal Corso v.5.0.2 svn rev. 9415
     Shape of augmentation charge: PSQ
     Using radial grid of 1279 points,  6 beta functions with:
                l(1) =   0
                l(2) =   0
                l(3) =   1
                l(4) =   1
                l(5) =   2
                l(6) =   2
     Q(r) pseudized with 0 coefficients

     atomic species   valence    mass     pseudopotential
        Mn1           15.00    54.93800     Mn( 1.00)
        Mn2           15.00    54.93800     Mn( 1.00)
        Au            11.00   196.96600     Au( 1.00)

     Starting magnetic structure
     atomic species   magnetization
        Mn1          0.800
        Mn2         -0.800
        Au           0.000

      4 Sym. Ops. (no inversion) found

   Cartesian axes

     site n.     atom                  positions (alat units)
         1           Mn1 tau(   1) = (   0.0000000   0.0000000   0.0000000  )
         2           Mn2 tau(   2) = (   0.0000000   0.3333300   0.0000000  )
         3           Mn1 tau(   3) = (   0.0000000   0.6666700   0.0000000  )
         4           Mn1 tau(   4) = (   0.3333300   0.0000000   0.0000000  )
         5           Mn1 tau(   5) = (   0.3333300   0.3333300   0.0000000  )
         6           Mn2 tau(   6) = (   0.3333300   0.6666700   0.0000000  )
         7           Mn2 tau(   7) = (   0.6666700   0.0000000   0.0000000  )
         8           Mn1 tau(   8) = (   0.6666700   0.3333300   0.0000000  )
         9           Mn1 tau(   9) = (   0.6666700   0.6666700   0.0000000  )
        10           Mn2 tau(  10) = (   0.1666700   0.1666700   0.4359871  )
        11           Mn1 tau(  11) = (   0.1666700   0.5000000   0.4359871  )
        12           Mn2 tau(  12) = (   0.1666700   0.8333300   0.4359871  )
        13           Mn2 tau(  13) = (   0.5000000   0.1666700   0.4359871  )
        14           Mn2 tau(  14) = (   0.5000000   0.5000000   0.4359871  )
        15           Mn1 tau(  15) = (   0.5000000   0.8333300   0.4359871  )
        16           Mn1 tau(  16) = (   0.8333300   0.1666700   0.4359871  )
        17           Mn2 tau(  17) = (   0.8333300   0.5000000   0.4359871  )
        18           Mn2 tau(  18) = (   0.8333300   0.8333300   0.4359871  )
        19           Au  tau(  19) = (   0.1666700   0.1666700   0.7327374  )
        20           Au  tau(  20) = (   0.1666700   0.5000000   0.7327374  )
        21           Au  tau(  21) = (   0.1666700   0.8333300   0.7327374  )
        22           Au  tau(  22) = (   0.5000000   0.1666700   0.7327374  )
        23           Au  tau(  23) = (   0.5000000   0.5000000   0.7327374  )
        24           Au  tau(  24) = (   0.5000000   0.8333300   0.7327374  )
        25           Au  tau(  25) = (   0.8333300   0.1666700   0.7327374  )
        26           Au  tau(  26) = (   0.8333300   0.5000000   0.7327374  )
        27           Au  tau(  27) = (   0.8333300   0.8333300   0.7327374  )
        28           Au  tau(  28) = (   0.1666700   0.1666700   0.1392369  )
        29           Au  tau(  29) = (   0.1666700   0.5000000   0.1392369  )
        30           Au  tau(  30) = (   0.1666700   0.8333300   0.1392369  )
        31           Au  tau(  31) = (   0.5000000   0.1666700   0.1392369  )
        32           Au  tau(  32) = (   0.5000000   0.5000000   0.1392369  )
        33           Au  tau(  33) = (   0.5000000   0.8333300   0.1392369  )
        34           Au  tau(  34) = (   0.8333300   0.1666700   0.1392369  )
        35           Au  tau(  35) = (   0.8333300   0.5000000   0.1392369  )
        36           Au  tau(  36) = (   0.8333300   0.8333300   0.1392369  )
        37           Au  tau(  37) = (   0.0000000   0.0000000   0.2967503  )
        38           Au  tau(  38) = (   0.0000000   0.3333300   0.2967503  )
        39           Au  tau(  39) = (   0.0000000   0.6666700   0.2967503  )
        40           Au  tau(  40) = (   0.3333300   0.0000000   0.2967503  )
        41           Au  tau(  41) = (   0.3333300   0.3333300   0.2967503  )
        42           Au  tau(  42) = (   0.3333300   0.6666700   0.2967503  )
        43           Au  tau(  43) = (   0.6666700   0.0000000   0.2967503  )
        44           Au  tau(  44) = (   0.6666700   0.3333300   0.2967503  )
        45           Au  tau(  45) = (   0.6666700   0.6666700   0.2967503  )
        46           Au  tau(  46) = (   0.0000000   0.0000000   0.5752240  )
        47           Au  tau(  47) = (   0.0000000   0.3333300   0.5752240  )
        48           Au  tau(  48) = (   0.0000000   0.6666700   0.5752240  )
        49           Au  tau(  49) = (   0.3333300   0.0000000   0.5752240  )
        50           Au  tau(  50) = (   0.3333300   0.3333300   0.5752240  )
        51           Au  tau(  51) = (   0.3333300   0.6666700   0.5752240  )
        52           Au  tau(  52) = (   0.6666700   0.0000000   0.5752240  )
        53           Au  tau(  53) = (   0.6666700   0.3333300   0.5752240  )
        54           Au  tau(  54) = (   0.6666700   0.6666700   0.5752240  )

     number of k points=     6 (tetrahedron method)
                       cart. coord. in units 2pi/alat
        k(    1) = (   0.0000000   0.0000000   0.0000000), wk =   0.1250000
        k(    2) = (   0.0000000   0.0000000  -0.5734114), wk =   0.1250000
        k(    3) = (   0.0000000  -0.5000000   0.0000000), wk =   0.2500000
        k(    4) = (   0.0000000  -0.5000000  -0.5734114), wk =   0.2500000
        k(    5) = (  -0.5000000  -0.5000000   0.0000000), wk =   0.1250000
        k(    6) = (  -0.5000000  -0.5000000  -0.5734114), wk =   0.1250000

     Check: negative/imaginary core charge=   -0.000006    0.000000

     Initial potential from superposition of free atoms

     starting charge  665.98709, renormalised to  666.00000
     Starting wfc are  504 randomized atomic wfcs
     Checking if some PAW data can be deallocated...

     Self-consistent Calculation

     iteration #  1     ecut=    45.00 Ry     beta= 0.10
     Davidson diagonalization with overlap
     ethr =  1.00E-02,  avg # of iterations =  3.9

     total energy              =  -33047.23735827 Ry
     Harris-Foulkes estimate   =  -33044.09843305 Ry
     estimated scf accuracy    <      27.00588831 Ry

     total magnetization       =     0.00 Bohr mag/cell
     absolute magnetization    =    91.83 Bohr mag/cell

[...]

     total energy              =  -33062.61990438 Ry
     Harris-Foulkes estimate   =  -33062.61990234 Ry
     estimated scf accuracy    <       0.00000107 Ry

[...]

     iteration # 28     ecut=    45.00 Ry     beta= 0.10
     Davidson diagonalization with overlap
     ethr =  1.60E-10,  avg # of iterations =  3.0

     Magnetic moment per site:
     atom:    1    charge:   13.5801    magn:    3.9761    constr:    0.0000
     atom:    2    charge:   13.5765    magn:   -4.0497    constr:    0.0000
     atom:    3    charge:   13.5803    magn:    3.9737    constr:    0.0000
     atom:    4    charge:   13.5803    magn:    3.9737    constr:    0.0000
     atom:    5    charge:   13.5802    magn:    3.9737    constr:    0.0000
     atom:    6    charge:   13.5769    magn:   -4.0462    constr:    0.0000
     atom:    7    charge:   13.5765    magn:   -4.0497    constr:    0.0000
     atom:    8    charge:   13.5799    magn:    3.9762    constr:    0.0000
     atom:    9    charge:   13.5802    magn:    3.9737    constr:    0.0000
     atom:   10    charge:   13.5804    magn:   -3.9737    constr:    0.0000
     atom:   11    charge:   13.5764    magn:    4.0497    constr:    0.0000
     atom:   12    charge:   13.5801    magn:   -3.9761    constr:    0.0000
     atom:   13    charge:   13.5802    magn:   -3.9738    constr:    0.0000
     atom:   14    charge:   13.5796    magn:   -3.9762    constr:    0.0000
     atom:   15    charge:   13.5764    magn:    4.0497    constr:    0.0000
     atom:   16    charge:   13.5771    magn:    4.0463    constr:    0.0000
     atom:   17    charge:   13.5802    magn:   -3.9738    constr:    0.0000
     atom:   18    charge:   13.5804    magn:   -3.9737    constr:    0.0000
     atom:   19    charge:    9.1216    magn:    0.0179    constr:    0.0000
     atom:   20    charge:    9.1217    magn:    0.0056    constr:    0.0000
     atom:   21    charge:    9.1216    magn:    0.0170    constr:    0.0000
     atom:   22    charge:    9.1216    magn:    0.0179    constr:    0.0000
     atom:   23    charge:    9.1215    magn:    0.0171    constr:    0.0000
     atom:   24    charge:    9.1217    magn:    0.0056    constr:    0.0000
     atom:   25    charge:    9.1220    magn:    0.0046    constr:    0.0000
     atom:   26    charge:    9.1216    magn:    0.0179    constr:    0.0000
     atom:   27    charge:    9.1216    magn:    0.0179    constr:    0.0000
     atom:   28    charge:    9.1216    magn:    0.0179    constr:    0.0000
     atom:   29    charge:    9.1217    magn:    0.0056    constr:    0.0000
     atom:   30    charge:    9.1216    magn:    0.0170    constr:    0.0000
     atom:   31    charge:    9.1216    magn:    0.0179    constr:    0.0000
     atom:   32    charge:    9.1215    magn:    0.0171    constr:    0.0000
     atom:   33    charge:    9.1217    magn:    0.0056    constr:    0.0000
     atom:   34    charge:    9.1220    magn:    0.0046    constr:    0.0000
     atom:   35    charge:    9.1216    magn:    0.0179    constr:    0.0000
     atom:   36    charge:    9.1216    magn:    0.0179    constr:    0.0000
     atom:   37    charge:    9.1217    magn:   -0.0171    constr:    0.0000
     atom:   38    charge:    9.1218    magn:   -0.0056    constr:    0.0000
     atom:   39    charge:    9.1217    magn:   -0.0180    constr:    0.0000
     atom:   40    charge:    9.1217    magn:   -0.0180    constr:    0.0000
     atom:   41    charge:    9.1215    magn:   -0.0179    constr:    0.0000
     atom:   42    charge:    9.1219    magn:   -0.0046    constr:    0.0000
     atom:   43    charge:    9.1218    magn:   -0.0056    constr:    0.0000
     atom:   44    charge:    9.1215    magn:   -0.0170    constr:    0.0000
     atom:   45    charge:    9.1215    magn:   -0.0179    constr:    0.0000
     atom:   46    charge:    9.1217    magn:   -0.0171    constr:    0.0000
     atom:   47    charge:    9.1218    magn:   -0.0056    constr:    0.0000
     atom:   48    charge:    9.1217    magn:   -0.0180    constr:    0.0000
     atom:   49    charge:    9.1217    magn:   -0.0180    constr:    0.0000
     atom:   50    charge:    9.1215    magn:   -0.0179    constr:    0.0000
     atom:   51    charge:    9.1219    magn:   -0.0046    constr:    0.0000
     atom:   52    charge:    9.1218    magn:   -0.0056    constr:    0.0000
     atom:   53    charge:    9.1215    magn:   -0.0170    constr:    0.0000
     atom:   54    charge:    9.1215    magn:   -0.0179    constr:    0.0000

     End of self-consistent calculation

 ------ SPIN UP ------------

          k = 0.0000 0.0000 0.0000 ( 31747 PWs)   bands (ev):

   -66.6739 -66.6739 -66.6670 -66.6273 -66.6263 -66.6220 -66.6220 -66.6214
   -66.6214 -62.3459 -62.3455 -62.3439 -62.3439 -62.3435 -62.3435 -62.3194
   -62.3194 -62.3153 -35.4465 -35.4464 -35.4364 -35.4063 -35.4063 -35.4060
   -35.4059 -35.4029 -35.3990 -35.3862 -35.3851 -35.3806 -35.3806 -35.3799
   -35.3799 -35.3734 -35.3724 -35.3714 -35.3696 -35.3689 -35.3672 -35.3581
   -35.3572 -35.3508 -35.3506 -35.3482 -35.3479 -31.1908 -31.1905 -31.1895
   -31.1883 -31.1882 -31.1857 -31.1836 -31.1815 -31.1811 -31.1797 -31.1792
   -31.1788 -31.1673 -31.1671 -31.1626 -31.1432 -31.1428 -31.1399 -31.1398
   -31.1393 -31.1392 -31.1381 -31.1380 -31.1363 -31.1363 -31.1347 -31.1322
     5.6162   7.1690   7.1691   7.1846   7.1851   7.3633   7.8652   7.9086
     7.9155   7.9156   8.1221   8.1224   8.1309   8.1310   8.1876   8.2717
     8.2720   8.2825   8.2829   8.5513   8.5514   8.5556   8.5690   8.5784
     8.6052   8.8729   8.8733   8.8734   8.8735   8.8767   8.8768   8.9046
     8.9248   8.9252   8.9302   8.9336   8.9339   8.9408   8.9410   8.9646
     8.9647   9.0837   9.1216   9.1274   9.1274   9.1305   9.1533   9.1766
     9.1768   9.1892   9.1911   9.2888   9.2902   9.2903   9.2946   9.3506
     9.3796   9.3802   9.3806   9.3956   9.3957   9.3967   9.3968   9.4322
     9.4324   9.4474   9.4475   9.4484   9.4488   9.4514   9.4827   9.5825
     9.5829   9.5902   9.5903   9.6366   9.6367   9.6447   9.6452   9.6665
     9.6716   9.6717   9.6749   9.7555   9.7678   9.7678   9.7731   9.8493
     9.8514   9.9317   9.9321   9.9344   9.9347   9.9474   9.9738   9.9986
    10.1435  10.1468  10.1471  10.1806  10.2914  10.2915  10.2950  10.3050
    10.3150  10.3158  10.3245  10.3248  10.3271  10.3272  10.3299  10.3303
    10.3490  10.3493  10.3530  10.3531  10.3658  10.3680  10.3681  10.3841
    10.3931  10.4990  10.5178  10.5431  10.6318  10.6541  10.6549  10.7461
    10.7465  10.7774  10.7777  10.7865  10.7878  10.8046  10.8100  10.8101
    10.8501  10.8502  10.8768  10.8806  10.8809  10.8876  10.8878  10.8909
    10.8979  10.9509  11.0530  11.0531  11.0651  11.0655  11.2085  11.2088
    11.2163  11.2268  11.2269  11.2717  11.3467  11.3470  11.3721  11.3724
    11.3790  11.3790  11.3869  11.3913  11.3915  11.3979  11.4226  11.4231
    11.4232  11.5803  11.5804  11.5915  11.5940  11.5947  11.5947  11.5951
    11.5951  11.5970  11.6389  11.6570  11.6570  11.7380  11.7382  11.7382
    11.7383  11.8205  11.8271  11.8303  11.8306  11.8712  11.9454  11.9458
    11.9606  11.9607  12.1008  12.1011  12.1036  12.1040  12.1265  12.1375
    12.1463  12.1465  12.1466  12.1495  12.1903  12.1914  12.2039  12.2041
    12.2107  12.3182  12.3192  12.3651  12.3673  12.3792  12.4330  12.4502
    12.4543  12.4665  12.4692  12.4817  12.4834  12.4974  12.4999  12.5730
    12.5743  12.5812  12.5861  12.6293  12.6310  12.6439  12.7323  12.7937
    12.8204  12.8210  12.9517  12.9520  12.9603  12.9822  13.0673  13.0685
    13.1028  13.1063  13.1408  13.1423  13.4978  13.6715  13.8727  13.8765
    13.8769  13.9108  13.9112  14.0420  14.2875  14.2876  14.3136  14.3137
    14.9247  14.9271  14.9963  15.0607  15.0620  15.1912  15.1920  15.1989
    15.2001  15.2442  15.3296  15.4230  15.4233  15.5336  15.5571  15.5843
    15.6119  15.6119  15.7415  15.9404  15.9953  16.0000  16.0465  16.0466
    16.0702  16.0705  16.1283  16.1302  16.1411  16.1424  16.1424  16.1468
    16.2115  16.2125  16.2128  16.2131  16.2840  16.3020  16.4213  16.4768
    16.4771  16.5436  16.6095  16.6739  16.7393  16.7397  16.8405  16.8482
    16.8491  17.0365  17.2068  17.2074  17.2258  17.2259  17.3450  17.3455
    17.4167  17.4174  17.8471  17.9211  17.9212  17.9395  17.9570  17.9571
    18.2793  18.2799  18.2818  19.0398  19.0400  19.1289  19.1292  19.2008

[...]

          k =-0.5000-0.5000 0.0000 ( 31612 PWs)   bands (ev):

[...]

 ------ SPIN DOWN ----------

[...]

          k = 0.0000-0.5000-0.5734 ( 31696 PWs)   bands (ev):

[...]

          k =-0.5000-0.5000-0.5734 ( 31672 PWs)   bands (ev):

   -66.6740 -66.6740 -66.6667 -66.6270 -66.6265 -66.6219 -66.6219 -66.6215
   -66.6215 -62.3464 -62.3457 -62.3438 -62.3438 -62.3433 -62.3433 -62.3191
   -62.3191 -62.3156 -35.4466 -35.4465 -35.4362 -35.4064 -35.4064 -35.4062
   -35.4062 -35.4026 -35.3986 -35.3857 -35.3852 -35.3806 -35.3806 -35.3802
   -35.3801 -35.3732 -35.3725 -35.3714 -35.3695 -35.3691 -35.3673 -35.3580
   -35.3575 -35.3509 -35.3505 -35.3480 -35.3480 -31.1911 -31.1906 -31.1895
   -31.1882 -31.1880 -31.1857 -31.1837 -31.1814 -31.1811 -31.1799 -31.1791
   -31.1788 -31.1671 -31.1669 -31.1629 -31.1437 -31.1430 -31.1398 -31.1397
   -31.1391 -31.1390 -31.1379 -31.1378 -31.1360 -31.1360 -31.1352 -31.1325
     6.8987   6.9321   6.9430   6.9437   6.9905   6.9934   6.9936   7.0589
     8.4619   8.4675   8.4807   8.4807   8.4842   8.4846   8.4871   8.4876
     8.4981   8.4983   8.5283   8.5286   8.5465   8.5469   8.5474   8.5694
     8.5696   8.5814   8.5816   8.6172   8.8651   8.8755   8.8927   8.8928
     8.8963   8.8964   8.9554   8.9626   9.0938   9.1188   9.1247   9.1251
     9.1274   9.1363   9.1366   9.1529   9.1535   9.1536   9.1605   9.1607
     9.1643   9.1649   9.1673   9.1738   9.1739   9.1760   9.1773   9.1834
     9.1834   9.1893   9.1954   9.1958   9.1989   9.1991   9.2021   9.2022
     9.2219   9.2220   9.2403   9.2495   9.2496   9.2777   9.2833   9.2836
     9.5515   9.5516   9.5526   9.5530   9.5915   9.5916   9.6240   9.6241
     9.6510   9.6856   9.6858   9.7034   9.7195   9.7339   9.7342   9.7719
     9.8068   9.8208   9.8579   9.8580   9.8714   9.8815   9.8816   9.9127
    10.1413  10.1415  10.1477  10.1478  10.1763  10.1764  10.1821  10.1826
    10.2950  10.3204  10.4438  10.4477  10.4614  10.4773  10.4784  10.4829
    10.4833  10.4933  10.4940  10.4942  10.4987  10.4989  10.5112  10.5214
    10.5220  10.5380  10.5381  10.5415  10.5767  10.6132  10.6138  10.6150
    10.6153  10.6315  10.6317  10.6376  10.6380  10.6475  10.6519  10.6592
    10.6736  10.6740  10.7286  10.7287  10.7414  10.7415  10.9814  11.0136
    11.0719  11.0723  11.0941  11.0944  11.1722  11.1729  11.3838  11.3838
    11.4057  11.4060  11.4310  11.4364  11.4366  11.4439  11.4464  11.4465
    11.4910  11.4912  11.5152  11.5173  11.5176  11.5542  11.5717  11.5807
    11.6269  11.6423  11.6530  11.6607  11.6612  11.6686  11.6686  11.7152
    11.7234  11.7350  11.7587  11.7700  11.7778  11.7780  11.7862  11.7869
    11.7972  11.7975  11.8323  11.8327  11.8775  11.9291  11.9681  12.0847
    12.0848  12.1249  12.1257  12.1259  12.1269  12.1377  12.1977  12.1977
    12.2034  12.2036  12.2080  12.2210  12.2217  12.2378  12.2387  12.3095
    12.3119  12.3944  12.3961  12.4179  12.4555  12.4561  12.4735  12.4748
    12.4884  12.4908  12.4974  12.4993  12.5037  12.5127  12.5168  12.6163
    12.6422  12.6426  12.6846  12.6857  12.7064  12.8010  12.8021  12.9301
    12.9320  12.9418  13.0274  13.0280  13.1077  13.1553  13.1557  13.1697
    13.2796  13.2814  13.5038  13.5040  13.5048  13.5054  13.5511  13.5521
    13.5526  13.5591  13.5593  13.8142  13.9386  13.9397  14.1425  14.1439
    14.2620  14.3592  14.4918  14.6854  14.8054  14.8056  14.8720  14.9101
    14.9102  15.0688  15.1078  15.2995  15.3001  15.4366  15.4370  15.6498
    15.6500  15.7456  15.8423  15.8425  15.8655  16.0289  16.0305  16.0378
    16.0394  16.0500  16.1418  16.2041  16.2062  16.2191  16.2241  16.3013
    16.3027  16.4410  16.4418  16.4489  16.4506  16.4883  16.4888  16.5275
    16.5288  16.5405  16.5533  16.5555  16.5667  16.7361  16.7364  16.7578
    16.7908  16.8003  16.8601  16.8613  16.9146  16.9157  16.9452  16.9453
    17.0592  17.0597  17.5605  17.7532  17.8890  17.9325  18.9927  18.9928
    19.0075  19.0675  19.0678  19.1185  19.1230  19.1230  19.3020  19.3021

     the Fermi energy is    14.7896 ev

!    total energy              =  -33062.61990703 Ry
     Harris-Foulkes estimate   =  -33062.61990020 Ry
     estimated scf accuracy    <       0.00000057 Ry

     total all-electron energy =  -1410574.710281 Ry

     The total energy is the sum of the following terms:

     one-electron contribution =   -1646.24107754 Ry
     hartree contribution      =    1490.44761362 Ry
     xc contribution           =   -1658.78981046 Ry
     ewald contribution        =   -4919.25534656 Ry
     one-center paw contrib.   =  -26328.78128610 Ry

     total magnetization       =    -0.00 Bohr mag/cell
     absolute magnetization    =    78.20 Bohr mag/cell

     convergence has been achieved in  28 iterations

     Writing output data file mnau2.save

     General routines

     Parallel routines

   This run was terminated on:  13: 0:38   8Mar2019

   JOB DONE.