     Program PWSCF v.6.2 (svn rev. 14038) starts on  8Mar2019 at 15:44: 1

     R & G space division:  proc/nbgrp/npool/nimage =      16
     Waiting for input...
     Reading input from standard input

     Current dimensions of program PWSCF are:
     Max number of different atomic species (ntypx) = 10
     Max number of k-points (npk) =  40000
     Max angular momentum in pseudopotentials (lmaxx) =  3
               file Mn.pbe-spn-kjpaw_psl.0.3.1.UPF: wavefunction(s)  3P 3D renormalized
               file Mn.pbe-spn-kjpaw_psl.0.3.1.UPF: wavefunction(s)  3P 3D renormalized
               file Au.pbe-dn-kjpaw_psl.0.1.UPF: wavefunction(s)  6S 6P 5D renormalized

     Subspace diagonalization in iterative solution of the eigenvalue problem:
     a serial algorithm will be used

     bravais-lattice index     =            0
     lattice parameter (alat)  =      19.2459  a.u.
     unit-cell volume          =    6216.1497 (a.u.)^3
     number of atoms/cell      =           54
     number of atomic types    =            3
     number of electrons       =       666.00
     number of Kohn-Sham states=          400
     kinetic-energy cutoff     =      45.0000  Ry
     charge density cutoff     =     400.0000  Ry
     convergence threshold     =      1.0E-06
     mixing beta               =       0.1000
     number of iterations used =            8  plain     mixing
     Exchange-correlation      = SLA PW PBX PBC ( 1  4  3  4 0 0)

     celldm(1)=  19.245946  celldm(2)=   0.000000  celldm(3)=   0.000000
     celldm(4)=   0.000000  celldm(5)=   0.000000  celldm(6)=   0.000000

     crystal axes: (cart. coord. in units of alat)
               a(1) = (   1.000000   0.000000   0.000000 )
               a(2) = (   0.000000   1.000000   0.000000 )
               a(3) = (   0.000000   0.000000   0.871974 )

     reciprocal axes: (cart. coord. in units 2 pi/alat)
               b(1) = (  1.000000  0.000000  0.000000 )
               b(2) = (  0.000000  1.000000  0.000000 )
               b(3) = (  0.000000  0.000000  1.146823 )

     PseudoPot. # 1 for Mn read from file:
     ./pseudo/Mn.pbe-spn-kjpaw_psl.0.3.1.UPF
     MD5 check sum: 7eef95dd2aae66803482eea66ebeebf1
     Pseudo is Projector augmented-wave + core cor, Zval = 15.0
     Generated using "atomic" code by A. Dal Corso v.5.0.99 svn rev. 10869
     Shape of augmentation charge: PSQ
     Using radial grid of 1187 points,  6 beta functions with:
                l(1) =   0
                l(2) =   0
                l(3) =   1
                l(4) =   1
                l(5) =   2
                l(6) =   2
     Q(r) pseudized with 0 coefficients

     PseudoPot. # 2 for Mn read from file:
     ./pseudo/Mn.pbe-spn-kjpaw_psl.0.3.1.UPF
     MD5 check sum: 7eef95dd2aae66803482eea66ebeebf1
     Pseudo is Projector augmented-wave + core cor, Zval = 15.0
     Generated using "atomic" code by A. Dal Corso v.5.0.99 svn rev. 10869
     Shape of augmentation charge: PSQ
     Using radial grid of 1187 points,  6 beta functions with:
                l(1) =   0
                l(2) =   0
                l(3) =   1
                l(4) =   1
                l(5) =   2
                l(6) =   2
     Q(r) pseudized with 0 coefficients

     PseudoPot. # 3 for Au read from file:
     ./pseudo/Au.pbe-dn-kjpaw_psl.0.1.UPF
     MD5 check sum: 5c9b92683623e7ae2ab3f8e525febab6
     Pseudo is Projector augmented-wave + core cor, Zval = 11.0
     Generated using "atomic" code by A. Dal Corso v.5.0.2 svn rev. 9415
     Shape of augmentation charge: PSQ
     Using radial grid of 1279 points,  6 beta functions with:
                l(1) =   0
                l(2) =   0
                l(3) =   1
                l(4) =   1
                l(5) =   2
                l(6) =   2
     Q(r) pseudized with 0 coefficients

     atomic species   valence    mass     pseudopotential
        Mn1           15.00    54.93800     Mn( 1.00)
        Mn2           15.00    54.93800     Mn( 1.00)
        Au            11.00   196.96600     Au( 1.00)

     Starting magnetic structure
     atomic species   magnetization
        Mn1          0.800
        Mn2         -0.800
        Au           0.000

      2 Sym. Ops. (no inversion) found

   Cartesian axes

     site n.     atom                  positions (alat units)
         1           Mn1 tau(   1) = (   0.0000000   0.0000000   0.0000000  )
         2           Mn2 tau(   2) = (   0.0000000   0.3333300   0.0000000  )
         3           Mn1 tau(   3) = (   0.0000000   0.6666700   0.0000000  )
         4           Mn1 tau(   4) = (   0.3333300   0.0000000   0.0000000  )
         5           Mn2 tau(   5) = (   0.3333300   0.3333300   0.0000000  )
         6           Mn1 tau(   6) = (   0.3333300   0.6666700   0.0000000  )
         7           Mn1 tau(   7) = (   0.6666700   0.0000000   0.0000000  )
         8           Mn1 tau(   8) = (   0.6666700   0.3333300   0.0000000  )
         9           Mn1 tau(   9) = (   0.6666700   0.6666700   0.0000000  )
        10           Mn2 tau(  10) = (   0.1666700   0.1666700   0.4359871  )
        11           Mn1 tau(  11) = (   0.1666700   0.5000000   0.4359871  )
        12           Mn2 tau(  12) = (   0.1666700   0.8333300   0.4359871  )
        13           Mn2 tau(  13) = (   0.5000000   0.1666700   0.4359871  )
        14           Mn1 tau(  14) = (   0.5000000   0.5000000   0.4359871  )
        15           Mn2 tau(  15) = (   0.5000000   0.8333300   0.4359871  )
        16           Mn2 tau(  16) = (   0.8333300   0.1666700   0.4359871  )
        17           Mn2 tau(  17) = (   0.8333300   0.5000000   0.4359871  )
        18           Mn2 tau(  18) = (   0.8333300   0.8333300   0.4359871  )
        19           Au  tau(  19) = (   0.1666700   0.1666700   0.7327374  )
        20           Au  tau(  20) = (   0.1666700   0.5000000   0.7327374  )
        21           Au  tau(  21) = (   0.1666700   0.8333300   0.7327374  )
        22           Au  tau(  22) = (   0.5000000   0.1666700   0.7327374  )
        23           Au  tau(  23) = (   0.5000000   0.5000000   0.7327374  )
        24           Au  tau(  24) = (   0.5000000   0.8333300   0.7327374  )
        25           Au  tau(  25) = (   0.8333300   0.1666700   0.7327374  )
        26           Au  tau(  26) = (   0.8333300   0.5000000   0.7327374  )
        27           Au  tau(  27) = (   0.8333300   0.8333300   0.7327374  )
        28           Au  tau(  28) = (   0.1666700   0.1666700   0.1392369  )
        29           Au  tau(  29) = (   0.1666700   0.5000000   0.1392369  )
        30           Au  tau(  30) = (   0.1666700   0.8333300   0.1392369  )
        31           Au  tau(  31) = (   0.5000000   0.1666700   0.1392369  )
        32           Au  tau(  32) = (   0.5000000   0.5000000   0.1392369  )
        33           Au  tau(  33) = (   0.5000000   0.8333300   0.1392369  )
        34           Au  tau(  34) = (   0.8333300   0.1666700   0.1392369  )
        35           Au  tau(  35) = (   0.8333300   0.5000000   0.1392369  )
        36           Au  tau(  36) = (   0.8333300   0.8333300   0.1392369  )
        37           Au  tau(  37) = (   0.0000000   0.0000000   0.2967503  )
        38           Au  tau(  38) = (   0.0000000   0.3333300   0.2967503  )
        39           Au  tau(  39) = (   0.0000000   0.6666700   0.2967503  )
        40           Au  tau(  40) = (   0.3333300   0.0000000   0.2967503  )
        41           Au  tau(  41) = (   0.3333300   0.3333300   0.2967503  )
        42           Au  tau(  42) = (   0.3333300   0.6666700   0.2967503  )
        43           Au  tau(  43) = (   0.6666700   0.0000000   0.2967503  )
        44           Au  tau(  44) = (   0.6666700   0.3333300   0.2967503  )
        45           Au  tau(  45) = (   0.6666700   0.6666700   0.2967503  )
        46           Au  tau(  46) = (   0.0000000   0.0000000   0.5752240  )
        47           Au  tau(  47) = (   0.0000000   0.3333300   0.5752240  )
        48           Au  tau(  48) = (   0.0000000   0.6666700   0.5752240  )
        49           Au  tau(  49) = (   0.3333300   0.0000000   0.5752240  )
        50           Au  tau(  50) = (   0.3333300   0.3333300   0.5752240  )
        51           Au  tau(  51) = (   0.3333300   0.6666700   0.5752240  )
        52           Au  tau(  52) = (   0.6666700   0.0000000   0.5752240  )
        53           Au  tau(  53) = (   0.6666700   0.3333300   0.5752240  )
        54           Au  tau(  54) = (   0.6666700   0.6666700   0.5752240  )

     number of k points=     8 (tetrahedron method)
                       cart. coord. in units 2pi/alat
        k(    1) = (   0.0000000   0.0000000   0.0000000), wk =   0.1250000
        k(    2) = (   0.0000000   0.0000000  -0.5734114), wk =   0.1250000
        k(    3) = (   0.0000000  -0.5000000   0.0000000), wk =   0.1250000
        k(    4) = (   0.0000000  -0.5000000  -0.5734114), wk =   0.1250000
        k(    5) = (  -0.5000000  -0.5000000   0.0000000), wk =   0.1250000
        k(    6) = (  -0.5000000  -0.5000000  -0.5734114), wk =   0.1250000
        k(    7) = (  -0.5000000   0.0000000   0.0000000), wk =   0.1250000
        k(    8) = (  -0.5000000   0.0000000   0.5734114), wk =   0.1250000

     Check: negative/imaginary core charge=   -0.000006    0.000000

     Initial potential from superposition of free atoms

     starting charge  665.98709, renormalised to  666.00000
     Starting wfc are  504 randomized atomic wfcs
     Checking if some PAW data can be deallocated...

     Self-consistent Calculation

     iteration #  1     ecut=    45.00 Ry     beta= 0.10
     Davidson diagonalization with overlap
     ethr =  1.00E-02,  avg # of iterations =  3.0

     total energy              =  -33047.17075679 Ry
     Harris-Foulkes estimate   =  -33044.01114245 Ry
     estimated scf accuracy    <      27.03237799 Ry

     total magnetization       =     0.01 Bohr mag/cell
     absolute magnetization    =    92.12 Bohr mag/cell

[...]

     total energy              =  -33062.61059757 Ry
     Harris-Foulkes estimate   =  -33062.61059525 Ry
     estimated scf accuracy    <       0.00000113 Ry

[...]

     iteration # 25     ecut=    45.00 Ry     beta= 0.10
     Davidson diagonalization with overlap
     ethr =  1.69E-10,  avg # of iterations =  2.2

     Magnetic moment per site:
     atom:    1    charge:   13.5692    magn:    4.0606    constr:    0.0000
     atom:    2    charge:   13.5764    magn:   -4.0267    constr:    0.0000
     atom:    3    charge:   13.5798    magn:    3.9771    constr:    0.0000
     atom:    4    charge:   13.5749    magn:    4.0126    constr:    0.0000
     atom:    5    charge:   13.5728    magn:   -4.0533    constr:    0.0000
     atom:    6    charge:   13.5810    magn:    3.9645    constr:    0.0000
     atom:    7    charge:   13.5708    magn:    4.0458    constr:    0.0000
     atom:    8    charge:   13.5802    magn:    3.9785    constr:    0.0000
     atom:    9    charge:   13.5784    magn:    3.9713    constr:    0.0000
     atom:   10    charge:   13.5811    magn:   -3.9645    constr:    0.0000
     atom:   11    charge:   13.5728    magn:    4.0533    constr:    0.0000
     atom:   12    charge:   13.5750    magn:   -4.0126    constr:    0.0000
     atom:   13    charge:   13.5797    magn:   -3.9770    constr:    0.0000
     atom:   14    charge:   13.5762    magn:    4.0267    constr:    0.0000
     atom:   15    charge:   13.5691    magn:   -4.0605    constr:    0.0000
     atom:   16    charge:   13.5785    magn:   -3.9713    constr:    0.0000
     atom:   17    charge:   13.5802    magn:   -3.9785    constr:    0.0000
     atom:   18    charge:   13.5708    magn:   -4.0458    constr:    0.0000
     atom:   19    charge:    9.1219    magn:   -0.0081    constr:    0.0000
     atom:   20    charge:    9.1213    magn:    0.0090    constr:    0.0000
     atom:   21    charge:    9.1209    magn:    0.0526    constr:    0.0000
     atom:   22    charge:    9.1216    magn:    0.0180    constr:    0.0000
     atom:   23    charge:    9.1201    magn:    0.0409    constr:    0.0000
     atom:   24    charge:    9.1203    magn:    0.0472    constr:    0.0000
     atom:   25    charge:    9.1214    magn:    0.0185    constr:    0.0000
     atom:   26    charge:    9.1197    magn:    0.0166    constr:    0.0000
     atom:   27    charge:    9.1207    magn:    0.0461    constr:    0.0000
     atom:   28    charge:    9.1219    magn:   -0.0081    constr:    0.0000
     atom:   29    charge:    9.1213    magn:    0.0090    constr:    0.0000
     atom:   30    charge:    9.1209    magn:    0.0526    constr:    0.0000
     atom:   31    charge:    9.1216    magn:    0.0180    constr:    0.0000
     atom:   32    charge:    9.1201    magn:    0.0409    constr:    0.0000
     atom:   33    charge:    9.1203    magn:    0.0472    constr:    0.0000
     atom:   34    charge:    9.1214    magn:    0.0185    constr:    0.0000
     atom:   35    charge:    9.1197    magn:    0.0166    constr:    0.0000
     atom:   36    charge:    9.1207    magn:    0.0461    constr:    0.0000
     atom:   37    charge:    9.1205    magn:   -0.0472    constr:    0.0000
     atom:   38    charge:    9.1202    magn:   -0.0409    constr:    0.0000
     atom:   39    charge:    9.1218    magn:   -0.0180    constr:    0.0000
     atom:   40    charge:    9.1209    magn:   -0.0526    constr:    0.0000
     atom:   41    charge:    9.1213    magn:   -0.0091    constr:    0.0000
     atom:   42    charge:    9.1218    magn:    0.0080    constr:    0.0000
     atom:   43    charge:    9.1207    magn:   -0.0461    constr:    0.0000
     atom:   44    charge:    9.1197    magn:   -0.0166    constr:    0.0000
     atom:   45    charge:    9.1213    magn:   -0.0185    constr:    0.0000
     atom:   46    charge:    9.1205    magn:   -0.0472    constr:    0.0000
     atom:   47    charge:    9.1202    magn:   -0.0409    constr:    0.0000
     atom:   48    charge:    9.1218    magn:   -0.0180    constr:    0.0000
     atom:   49    charge:    9.1209    magn:   -0.0526    constr:    0.0000
     atom:   50    charge:    9.1213    magn:   -0.0091    constr:    0.0000
     atom:   51    charge:    9.1218    magn:    0.0080    constr:    0.0000
     atom:   52    charge:    9.1207    magn:   -0.0461    constr:    0.0000
     atom:   53    charge:    9.1197    magn:   -0.0166    constr:    0.0000
     atom:   54    charge:    9.1213    magn:   -0.0185    constr:    0.0000

     End of self-consistent calculation

 ------ SPIN UP ------------

          k = 0.0000 0.0000 0.0000 ( 31747 PWs)   bands (ev):

   -66.7881 -66.7544 -66.7090 -66.7070 -66.6637 -66.6464 -66.6389 -66.6339
   -66.6170 -62.4136 -62.3917 -62.3849 -62.3591 -62.3505 -62.3492 -62.3474
   -62.3412 -62.3334 -35.5422 -35.5305 -35.5181 -35.5144 -35.4961 -35.4793
   -35.4636 -35.4609 -35.4585 -35.4564 -35.4393 -35.4358 -35.4332 -35.4099
   -35.4047 -35.4012 -35.3960 -35.3915 -35.3885 -35.3830 -35.3797 -35.3768
   -35.3759 -35.3709 -35.3550 -35.3535 -35.3335 -31.2500 -31.2473 -31.2309
   -31.2200 -31.2184 -31.2178 -31.2132 -31.2077 -31.2013 -31.1995 -31.1958
   -31.1957 -31.1854 -31.1815 -31.1796 -31.1753 -31.1742 -31.1726 -31.1694
   -31.1684 -31.1675 -31.1650 -31.1572 -31.1530 -31.1505 -31.1496 -31.1457
     5.6143   7.1508   7.1597   7.1943   7.2058   7.3658   7.8593   7.8884
     7.9117   7.9428   8.0843   8.1088   8.1348   8.1530   8.1908   8.2439
     8.2619   8.2923   8.3105   8.5238   8.5494   8.5640   8.5693   8.5945
     8.6035   8.8570   8.8676   8.8687   8.8789   8.8852   8.8932   8.9016
     8.9031   8.9059   8.9139   8.9168   8.9309   8.9409   8.9623   8.9637
     8.9866   9.0852   9.1194   9.1267   9.1285   9.1312   9.1594   9.1603
     9.1885   9.2010   9.2120   9.2690   9.2781   9.2936   9.3061   9.3525
     9.3556   9.3620   9.3720   9.3764   9.3823   9.3852   9.4126   9.4259
     9.4461   9.4481   9.4557   9.4664   9.4673   9.4726   9.4955   9.5813
     9.5839   9.5840   9.5887   9.5913   9.6138   9.6583   9.6684   9.6725
     9.6737   9.6767   9.6810   9.7404   9.7585   9.7731   9.7930   9.8493
     9.8506   9.9122   9.9207   9.9505   9.9550   9.9637  10.0164  10.0375
    10.0966  10.1286  10.1364  10.1582  10.2923  10.2931  10.2954  10.2997
    10.3008  10.3063  10.3064  10.3117  10.3117  10.3249  10.3342  10.3455
    10.3497  10.3511  10.3546  10.3565  10.3616  10.3658  10.3809  10.3854
    10.4009  10.5135  10.5167  10.5533  10.5706  10.6180  10.6220  10.6426
    10.6915  10.7846  10.7870  10.8140  10.8199  10.8266  10.8321  10.8493
    10.8540  10.8597  10.8629  10.8746  10.8780  10.8825  10.8988  10.9139
    10.9171  10.9180  11.0144  11.0351  11.0757  11.0978  11.2208  11.2227
    11.2265  11.2290  11.2571  11.2751  11.3070  11.3282  11.3339  11.3461
    11.3547  11.3670  11.3881  11.3916  11.4014  11.4090  11.4153  11.4217
    11.4399  11.4651  11.5322  11.5550  11.5911  11.5940  11.5968  11.5981
    11.5986  11.6680  11.7049  11.7271  11.7316  11.7318  11.7442  11.7493
    11.8302  11.8332  11.8364  11.8720  11.8732  11.9096  11.9273  11.9454
    11.9494  12.0143  12.0809  12.1013  12.1022  12.1035  12.1061  12.1443
    12.1459  12.1479  12.1494  12.1617  12.1740  12.1813  12.1915  12.2317
    12.2449  12.2464  12.3227  12.3358  12.3421  12.3617  12.3682  12.4258
    12.4292  12.4346  12.4428  12.4733  12.4881  12.5001  12.5033  12.5143
    12.5168  12.5416  12.5418  12.5552  12.5626  12.5766  12.5871  12.6514
    12.7002  12.7081  12.7437  12.7541  12.9974  13.0301  13.0914  13.1061
    13.1301  13.1311  13.1782  13.1885  13.3759  13.4665  13.6749  13.8220
    13.8390  13.9611  14.0069  14.2395  14.2436  14.3452  14.3519  14.5017
    14.7792  14.8898  14.9449  15.0459  15.0524  15.1535  15.1836  15.2345
    15.2952  15.3344  15.3729  15.3933  15.4474  15.4662  15.5182  15.5773
    15.6579  15.6585  15.7347  15.7560  15.7847  15.7981  15.9151  15.9226
    16.0065  16.0822  16.1081  16.1099  16.1147  16.1456  16.1792  16.2120
    16.2215  16.2446  16.2788  16.3404  16.3623  16.3668  16.3780  16.4388
    16.4471  16.4672  16.4739  16.5808  16.6419  16.6509  16.7561  16.8496
    16.9772  17.0302  17.1653  17.1909  17.2029  17.2472  17.2638  17.3295
    17.5023  17.5524  17.8675  17.9114  17.9336  17.9474  17.9714  18.0366
    18.1154  18.2167  18.3698  18.9817  19.0338  19.0341  19.1562  19.2290

[...]

          k =-0.5000-0.5000 0.0000 ( 31612 PWs)   bands (ev):

[...]

 ------ SPIN DOWN ----------

[...]

          k = 0.0000-0.5000-0.5734 ( 31696 PWs)   bands (ev):

[...]

          k =-0.5000 0.0000 0.5734 ( 31696 PWs)   bands (ev):

   -66.7880 -66.7543 -66.7089 -66.7070 -66.6637 -66.6464 -66.6389 -66.6339
   -66.6170 -62.4136 -62.3917 -62.3850 -62.3591 -62.3504 -62.3493 -62.3474
   -62.3411 -62.3334 -35.5421 -35.5305 -35.5180 -35.5143 -35.4959 -35.4792
   -35.4636 -35.4609 -35.4584 -35.4564 -35.4393 -35.4358 -35.4332 -35.4100
   -35.4047 -35.4013 -35.3959 -35.3915 -35.3885 -35.3830 -35.3803 -35.3768
   -35.3744 -35.3718 -35.3550 -35.3536 -35.3334 -31.2504 -31.2474 -31.2301
   -31.2200 -31.2184 -31.2184 -31.2133 -31.2078 -31.2016 -31.1996 -31.1958
   -31.1956 -31.1857 -31.1815 -31.1785 -31.1752 -31.1742 -31.1726 -31.1694
   -31.1690 -31.1675 -31.1649 -31.1572 -31.1530 -31.1504 -31.1495 -31.1457
     6.5232   6.5535   6.6066   6.6519   7.8322   7.8398   7.8457   7.8790
     7.8989   7.9314   7.9451   7.9496   8.2642   8.2822   8.2928   8.3049
     8.5040   8.5251   8.5355   8.5411   8.6376   8.6659   8.6736   8.6866
     8.6918   8.6961   8.7127   8.7166   8.7210   8.7239   8.7444   8.7582
     8.7588   8.7637   8.7838   8.8430   8.9457   8.9715   9.0246   9.0264
     9.0305   9.0607   9.0650   9.0808   9.1815   9.1990   9.2015   9.2118
     9.2177   9.2215   9.2233   9.2298   9.2357   9.2465   9.2552   9.2654
     9.2719   9.2810   9.2885   9.2914   9.3052   9.3623   9.3807   9.3830
     9.4067   9.4260   9.4528   9.4568   9.4637   9.4651   9.4715   9.4854
     9.4877   9.4928   9.4999   9.5019   9.5149   9.5452   9.5506   9.5740
     9.5826   9.6198   9.7520   9.7630   9.7741   9.7775   9.8047   9.8242
     9.8249   9.8388   9.8487   9.8544   9.8578   9.8610   9.8934   9.8948
     9.9594   9.9855   9.9889   9.9985  10.0302  10.0308  10.0547  10.0695
    10.3572  10.3861  10.3924  10.4060  10.4118  10.4176  10.4236  10.4303
    10.4490  10.4610  10.4729  10.4790  10.4884  10.4942  10.4986  10.5179
    10.5274  10.5635  10.5758  10.5793  10.5981  10.6103  10.6149  10.6170
    10.6409  10.6495  10.6676  10.6702  10.6782  10.6927  10.7164  10.7170
    10.7300  10.8554  10.8614  10.9049  10.9632  10.9950  11.0354  11.1086
    11.1148  11.1310  11.1346  11.1498  11.1607  11.1891  11.1977  11.2100
    11.2114  11.2144  11.2557  11.3169  11.3436  11.3523  11.3652  11.3705
    11.3784  11.3816  11.4105  11.4260  11.4398  11.4852  11.4886  11.5110
    11.5196  11.5572  11.5740  11.5788  11.5811  11.5960  11.6028  11.6205
    11.6227  11.6419  11.6429  11.7109  11.7562  11.7650  11.8162  11.8243
    11.8926  11.8978  11.9036  11.9531  11.9615  11.9621  11.9821  12.0092
    12.0219  12.0273  12.0274  12.0333  12.0366  12.0391  12.0784  12.1337
    12.1435  12.1597  12.1822  12.2214  12.2323  12.2578  12.2917  12.3372
    12.3704  12.4112  12.4165  12.4233  12.4446  12.4468  12.4742  12.4885
    12.4993  12.5125  12.5152  12.5307  12.5451  12.5620  12.6269  12.6280
    12.6309  12.6404  12.6587  12.6611  12.7309  12.7572  12.7669  12.7789
    12.8676  12.8810  12.9118  12.9767  13.0105  13.0255  13.0437  13.0629
    13.0810  13.1953  13.2596  13.3549  13.4467  13.5347  13.5654  13.7996
    13.8733  13.9810  14.0568  14.1162  14.1498  14.2426  14.2699  14.3973
    14.4216  14.4621  14.5295  14.5801  14.6945  14.7050  14.7917  15.0323
    15.0920  15.2020  15.2684  15.3117  15.3447  15.3834  15.5591  15.5874
    15.6072  15.6837  15.7820  15.7983  15.8609  15.9213  15.9393  15.9684
    16.0359  16.0726  16.0876  16.1243  16.1497  16.1742  16.2147  16.2294
    16.2427  16.2694  16.2783  16.2788  16.2912  16.3348  16.3668  16.4838
    16.4863  16.5335  16.5464  16.5951  16.6136  16.6489  16.6877  16.7446
    16.7470  16.8059  16.8322  16.8996  16.9137  16.9527  16.9591  16.9951
    17.0807  17.1208  17.2061  17.2828  18.5593  18.6773  18.7113  18.7181
    18.7460  18.7992  18.8345  18.8553  18.8645  18.9200  18.9658  18.9889

     the Fermi energy is    14.8423 ev

!    total energy              =  -33062.61060782 Ry
     Harris-Foulkes estimate   =  -33062.61059638 Ry
     estimated scf accuracy    <       0.00000033 Ry

     total all-electron energy =  -1410574.700982 Ry

     The total energy is the sum of the following terms:

     one-electron contribution =   -1645.67680257 Ry
     hartree contribution      =    1489.88888500 Ry
     xc contribution           =   -1658.75237482 Ry
     ewald contribution        =   -4919.25534656 Ry
     one-center paw contrib.   =  -26328.81496888 Ry

     total magnetization       =     0.00 Bohr mag/cell
     absolute magnetization    =    78.95 Bohr mag/cell

     convergence has been achieved in  25 iterations

     Writing output data file mnau2.save

     General routines

     Parallel routines

   This run was terminated on:  16:44: 9   8Mar2019

   JOB DONE.