     Program PWSCF v.6.2 (svn rev. 14038) starts on  8Mar2019 at 17:39:16

     R & G space division:  proc/nbgrp/npool/nimage =      16
     Waiting for input...
     Reading input from standard input

     Current dimensions of program PWSCF are:
     Max number of different atomic species (ntypx) = 10
     Max number of k-points (npk) =  40000
     Max angular momentum in pseudopotentials (lmaxx) =  3
               file Mn.pbe-spn-kjpaw_psl.0.3.1.UPF: wavefunction(s)  3P 3D renormalized
               file Mn.pbe-spn-kjpaw_psl.0.3.1.UPF: wavefunction(s)  3P 3D renormalized
               file Au.pbe-dn-kjpaw_psl.0.1.UPF: wavefunction(s)  6S 6P 5D renormalized

     Subspace diagonalization in iterative solution of the eigenvalue problem:
     a serial algorithm will be used

     Found symmetry operation: I + ( -0.3333  0.0000  0.0000)
     This is a supercell, fractional translations are disabled

     bravais-lattice index     =            0
     lattice parameter (alat)  =      19.2459  a.u.
     unit-cell volume          =    6216.1497 (a.u.)^3
     number of atoms/cell      =           54
     number of atomic types    =            3
     number of electrons       =       666.00
     number of Kohn-Sham states=          400
     kinetic-energy cutoff     =      45.0000  Ry
     charge density cutoff     =     400.0000  Ry
     convergence threshold     =      1.0E-06
     mixing beta               =       0.1000
     number of iterations used =            8  plain     mixing
     Exchange-correlation      = SLA PW PBX PBC ( 1  4  3  4 0 0)

     celldm(1)=  19.245946  celldm(2)=   0.000000  celldm(3)=   0.000000
     celldm(4)=   0.000000  celldm(5)=   0.000000  celldm(6)=   0.000000

     crystal axes: (cart. coord. in units of alat)
               a(1) = (   1.000000   0.000000   0.000000 )
               a(2) = (   0.000000   1.000000   0.000000 )
               a(3) = (   0.000000   0.000000   0.871974 )

     reciprocal axes: (cart. coord. in units 2 pi/alat)
               b(1) = (  1.000000  0.000000  0.000000 )
               b(2) = (  0.000000  1.000000  0.000000 )
               b(3) = (  0.000000  0.000000  1.146823 )

     PseudoPot. # 1 for Mn read from file:
     ./pseudo/Mn.pbe-spn-kjpaw_psl.0.3.1.UPF
     MD5 check sum: 7eef95dd2aae66803482eea66ebeebf1
     Pseudo is Projector augmented-wave + core cor, Zval = 15.0
     Generated using "atomic" code by A. Dal Corso v.5.0.99 svn rev. 10869
     Shape of augmentation charge: PSQ
     Using radial grid of 1187 points,  6 beta functions with:
                l(1) =   0
                l(2) =   0
                l(3) =   1
                l(4) =   1
                l(5) =   2
                l(6) =   2
     Q(r) pseudized with 0 coefficients

     PseudoPot. # 2 for Mn read from file:
     ./pseudo/Mn.pbe-spn-kjpaw_psl.0.3.1.UPF
     MD5 check sum: 7eef95dd2aae66803482eea66ebeebf1
     Pseudo is Projector augmented-wave + core cor, Zval = 15.0
     Generated using "atomic" code by A. Dal Corso v.5.0.99 svn rev. 10869
     Shape of augmentation charge: PSQ
     Using radial grid of 1187 points,  6 beta functions with:
                l(1) =   0
                l(2) =   0
                l(3) =   1
                l(4) =   1
                l(5) =   2
                l(6) =   2
     Q(r) pseudized with 0 coefficients

     PseudoPot. # 3 for Au read from file:
     ./pseudo/Au.pbe-dn-kjpaw_psl.0.1.UPF
     MD5 check sum: 5c9b92683623e7ae2ab3f8e525febab6
     Pseudo is Projector augmented-wave + core cor, Zval = 11.0
     Generated using "atomic" code by A. Dal Corso v.5.0.2 svn rev. 9415
     Shape of augmentation charge: PSQ
     Using radial grid of 1279 points,  6 beta functions with:
                l(1) =   0
                l(2) =   0
                l(3) =   1
                l(4) =   1
                l(5) =   2
                l(6) =   2
     Q(r) pseudized with 0 coefficients

     atomic species   valence    mass     pseudopotential
        Mn1           15.00    54.93800     Mn( 1.00)
        Mn2           15.00    54.93800     Mn( 1.00)
        Au            11.00   196.96600     Au( 1.00)

     Starting magnetic structure
     atomic species   magnetization
        Mn1          0.800
        Mn2         -0.800
        Au           0.000

      4 Sym. Ops. (no inversion) found

   Cartesian axes

     site n.     atom                  positions (alat units)
         1           Mn1 tau(   1) = (   0.0000000   0.0000000   0.0000000  )
         2           Mn2 tau(   2) = (   0.0000000   0.3333300   0.0000000  )
         3           Mn1 tau(   3) = (   0.0000000   0.6666700   0.0000000  )
         4           Mn1 tau(   4) = (   0.3333300   0.0000000   0.0000000  )
         5           Mn2 tau(   5) = (   0.3333300   0.3333300   0.0000000  )
         6           Mn1 tau(   6) = (   0.3333300   0.6666700   0.0000000  )
         7           Mn1 tau(   7) = (   0.6666700   0.0000000   0.0000000  )
         8           Mn2 tau(   8) = (   0.6666700   0.3333300   0.0000000  )
         9           Mn1 tau(   9) = (   0.6666700   0.6666700   0.0000000  )
        10           Mn2 tau(  10) = (   0.1666700   0.1666700   0.4359871  )
        11           Mn1 tau(  11) = (   0.1666700   0.5000000   0.4359871  )
        12           Mn2 tau(  12) = (   0.1666700   0.8333300   0.4359871  )
        13           Mn2 tau(  13) = (   0.5000000   0.1666700   0.4359871  )
        14           Mn1 tau(  14) = (   0.5000000   0.5000000   0.4359871  )
        15           Mn2 tau(  15) = (   0.5000000   0.8333300   0.4359871  )
        16           Mn2 tau(  16) = (   0.8333300   0.1666700   0.4359871  )
        17           Mn1 tau(  17) = (   0.8333300   0.5000000   0.4359871  )
        18           Mn2 tau(  18) = (   0.8333300   0.8333300   0.4359871  )
        19           Au  tau(  19) = (   0.1666700   0.1666700   0.7327374  )
        20           Au  tau(  20) = (   0.1666700   0.5000000   0.7327374  )
        21           Au  tau(  21) = (   0.1666700   0.8333300   0.7327374  )
        22           Au  tau(  22) = (   0.5000000   0.1666700   0.7327374  )
        23           Au  tau(  23) = (   0.5000000   0.5000000   0.7327374  )
        24           Au  tau(  24) = (   0.5000000   0.8333300   0.7327374  )
        25           Au  tau(  25) = (   0.8333300   0.1666700   0.7327374  )
        26           Au  tau(  26) = (   0.8333300   0.5000000   0.7327374  )
        27           Au  tau(  27) = (   0.8333300   0.8333300   0.7327374  )
        28           Au  tau(  28) = (   0.1666700   0.1666700   0.1392369  )
        29           Au  tau(  29) = (   0.1666700   0.5000000   0.1392369  )
        30           Au  tau(  30) = (   0.1666700   0.8333300   0.1392369  )
        31           Au  tau(  31) = (   0.5000000   0.1666700   0.1392369  )
        32           Au  tau(  32) = (   0.5000000   0.5000000   0.1392369  )
        33           Au  tau(  33) = (   0.5000000   0.8333300   0.1392369  )
        34           Au  tau(  34) = (   0.8333300   0.1666700   0.1392369  )
        35           Au  tau(  35) = (   0.8333300   0.5000000   0.1392369  )
        36           Au  tau(  36) = (   0.8333300   0.8333300   0.1392369  )
        37           Au  tau(  37) = (   0.0000000   0.0000000   0.2967503  )
        38           Au  tau(  38) = (   0.0000000   0.3333300   0.2967503  )
        39           Au  tau(  39) = (   0.0000000   0.6666700   0.2967503  )
        40           Au  tau(  40) = (   0.3333300   0.0000000   0.2967503  )
        41           Au  tau(  41) = (   0.3333300   0.3333300   0.2967503  )
        42           Au  tau(  42) = (   0.3333300   0.6666700   0.2967503  )
        43           Au  tau(  43) = (   0.6666700   0.0000000   0.2967503  )
        44           Au  tau(  44) = (   0.6666700   0.3333300   0.2967503  )
        45           Au  tau(  45) = (   0.6666700   0.6666700   0.2967503  )
        46           Au  tau(  46) = (   0.0000000   0.0000000   0.5752240  )
        47           Au  tau(  47) = (   0.0000000   0.3333300   0.5752240  )
        48           Au  tau(  48) = (   0.0000000   0.6666700   0.5752240  )
        49           Au  tau(  49) = (   0.3333300   0.0000000   0.5752240  )
        50           Au  tau(  50) = (   0.3333300   0.3333300   0.5752240  )
        51           Au  tau(  51) = (   0.3333300   0.6666700   0.5752240  )
        52           Au  tau(  52) = (   0.6666700   0.0000000   0.5752240  )
        53           Au  tau(  53) = (   0.6666700   0.3333300   0.5752240  )
        54           Au  tau(  54) = (   0.6666700   0.6666700   0.5752240  )

     number of k points=     8 (tetrahedron method)
                       cart. coord. in units 2pi/alat
        k(    1) = (   0.0000000   0.0000000   0.0000000), wk =   0.1250000
        k(    2) = (   0.0000000   0.0000000  -0.5734114), wk =   0.1250000
        k(    3) = (   0.0000000  -0.5000000   0.0000000), wk =   0.1250000
        k(    4) = (   0.0000000  -0.5000000  -0.5734114), wk =   0.1250000
        k(    5) = (  -0.5000000  -0.5000000   0.0000000), wk =   0.1250000
        k(    6) = (  -0.5000000  -0.5000000  -0.5734114), wk =   0.1250000
        k(    7) = (  -0.5000000   0.0000000   0.0000000), wk =   0.1250000
        k(    8) = (  -0.5000000   0.0000000   0.5734114), wk =   0.1250000

     Check: negative/imaginary core charge=   -0.000006    0.000000

     Initial potential from superposition of free atoms

     starting charge  665.98709, renormalised to  666.00000
     Starting wfc are  504 randomized atomic wfcs
     Checking if some PAW data can be deallocated...

     Self-consistent Calculation

     iteration #  1     ecut=    45.00 Ry     beta= 0.10
     Davidson diagonalization with overlap
     ethr =  1.00E-02,  avg # of iterations =  3.7

     total energy              =  -33047.16271343 Ry
     Harris-Foulkes estimate   =  -33044.00836807 Ry
     estimated scf accuracy    <      27.07134695 Ry

     total magnetization       =     0.01 Bohr mag/cell
     absolute magnetization    =    92.14 Bohr mag/cell

[...]

     iteration # 12     ecut=    45.00 Ry     beta= 0.10
     Davidson diagonalization with overlap
     c_bands:  1 eigenvalues not converged
     ethr =  5.09E-07,  avg # of iterations =  5.8

[...]

     total energy              =  -33062.60092772 Ry
     Harris-Foulkes estimate   =  -33062.60092744 Ry
     estimated scf accuracy    <       0.00000129 Ry

[...]

     iteration # 58     ecut=    45.00 Ry     beta= 0.10
     Davidson diagonalization with overlap
     ethr =  1.93E-10,  avg # of iterations =  1.1

     Magnetic moment per site:
     atom:    1    charge:   13.5693    magn:    4.0623    constr:    0.0000
     atom:    2    charge:   13.5764    magn:   -4.0052    constr:    0.0000
     atom:    3    charge:   13.5807    magn:    3.9583    constr:    0.0000
     atom:    4    charge:   13.5693    magn:    4.0698    constr:    0.0000
     atom:    5    charge:   13.5757    magn:   -4.0133    constr:    0.0000
     atom:    6    charge:   13.5812    magn:    3.9547    constr:    0.0000
     atom:    7    charge:   13.5693    magn:    4.0698    constr:    0.0000
     atom:    8    charge:   13.5757    magn:   -4.0133    constr:    0.0000
     atom:    9    charge:   13.5812    magn:    3.9547    constr:    0.0000
     atom:   10    charge:   13.5811    magn:   -3.9548    constr:    0.0000
     atom:   11    charge:   13.5759    magn:    4.0136    constr:    0.0000
     atom:   12    charge:   13.5690    magn:   -4.0708    constr:    0.0000
     atom:   13    charge:   13.5809    magn:   -3.9583    constr:    0.0000
     atom:   14    charge:   13.5759    magn:    4.0048    constr:    0.0000
     atom:   15    charge:   13.5700    magn:   -4.0601    constr:    0.0000
     atom:   16    charge:   13.5811    magn:   -3.9548    constr:    0.0000
     atom:   17    charge:   13.5759    magn:    4.0136    constr:    0.0000
     atom:   18    charge:   13.5690    magn:   -4.0708    constr:    0.0000
     atom:   19    charge:    9.1219    magn:   -0.0059    constr:    0.0000
     atom:   20    charge:    9.1200    magn:    0.0093    constr:    0.0000
     atom:   21    charge:    9.1210    magn:    0.0470    constr:    0.0000
     atom:   22    charge:    9.1220    magn:   -0.0070    constr:    0.0000
     atom:   23    charge:    9.1200    magn:    0.0082    constr:    0.0000
     atom:   24    charge:    9.1207    magn:    0.0480    constr:    0.0000
     atom:   25    charge:    9.1219    magn:   -0.0059    constr:    0.0000
     atom:   26    charge:    9.1200    magn:    0.0093    constr:    0.0000
     atom:   27    charge:    9.1210    magn:    0.0470    constr:    0.0000
     atom:   28    charge:    9.1219    magn:   -0.0059    constr:    0.0000
     atom:   29    charge:    9.1200    magn:    0.0093    constr:    0.0000
     atom:   30    charge:    9.1210    magn:    0.0470    constr:    0.0000
     atom:   31    charge:    9.1220    magn:   -0.0070    constr:    0.0000
     atom:   32    charge:    9.1200    magn:    0.0082    constr:    0.0000
     atom:   33    charge:    9.1207    magn:    0.0480    constr:    0.0000
     atom:   34    charge:    9.1219    magn:   -0.0059    constr:    0.0000
     atom:   35    charge:    9.1200    magn:    0.0093    constr:    0.0000
     atom:   36    charge:    9.1210    magn:    0.0470    constr:    0.0000
     atom:   37    charge:    9.1210    magn:   -0.0472    constr:    0.0000
     atom:   38    charge:    9.1201    magn:   -0.0085    constr:    0.0000
     atom:   39    charge:    9.1221    magn:    0.0076    constr:    0.0000
     atom:   40    charge:    9.1210    magn:   -0.0473    constr:    0.0000
     atom:   41    charge:    9.1200    magn:   -0.0092    constr:    0.0000
     atom:   42    charge:    9.1219    magn:    0.0056    constr:    0.0000
     atom:   43    charge:    9.1210    magn:   -0.0473    constr:    0.0000
     atom:   44    charge:    9.1200    magn:   -0.0092    constr:    0.0000
     atom:   45    charge:    9.1219    magn:    0.0056    constr:    0.0000
     atom:   46    charge:    9.1210    magn:   -0.0472    constr:    0.0000
     atom:   47    charge:    9.1201    magn:   -0.0085    constr:    0.0000
     atom:   48    charge:    9.1221    magn:    0.0076    constr:    0.0000
     atom:   49    charge:    9.1210    magn:   -0.0473    constr:    0.0000
     atom:   50    charge:    9.1200    magn:   -0.0092    constr:    0.0000
     atom:   51    charge:    9.1219    magn:    0.0056    constr:    0.0000
     atom:   52    charge:    9.1210    magn:   -0.0473    constr:    0.0000
     atom:   53    charge:    9.1200    magn:   -0.0092    constr:    0.0000
     atom:   54    charge:    9.1219    magn:    0.0056    constr:    0.0000

     End of self-consistent calculation

 ------ SPIN UP ------------

          k = 0.0000 0.0000 0.0000 ( 31747 PWs)   bands (ev):

   -66.7825 -66.7822 -66.7752 -66.6749 -66.6746 -66.6669 -66.6124 -66.6106
   -66.6103 -62.4012 -62.3996 -62.3993 -62.3561 -62.3557 -62.3551 -62.3436
   -62.3432 -62.3423 -35.5419 -35.5414 -35.5353 -35.5340 -35.5303 -35.5201
   -35.5016 -35.5011 -35.4950 -35.4433 -35.4428 -35.4395 -35.4109 -35.4076
   -35.4047 -35.4041 -35.3974 -35.3927 -35.3610 -35.3608 -35.3555 -35.3550
   -35.3548 -35.3546 -35.3522 -35.3500 -35.3496 -31.2383 -31.2364 -31.2273
   -31.2262 -31.2256 -31.2250 -31.2159 -31.2151 -31.2148 -31.1880 -31.1872
   -31.1861 -31.1850 -31.1847 -31.1815 -31.1808 -31.1762 -31.1756 -31.1754
   -31.1749 -31.1746 -31.1742 -31.1737 -31.1699 -31.1514 -31.1507 -31.1499
     5.6143   7.1419   7.1782   7.1798   7.2117   7.3644   7.8636   7.8650
     7.9358   7.9362   8.0636   8.1332   8.1388   8.1393   8.2023   8.2294
     8.2763   8.2773   8.3265   8.5269   8.5278   8.5603   8.5925   8.5929
     8.5985   8.8440   8.8655   8.8778   8.8787   8.8863   8.8863   8.8894
     8.9126   8.9131   8.9153   8.9237   8.9245   8.9483   8.9493   8.9828
     9.0153   9.0846   9.1198   9.1204   9.1317   9.1324   9.1603   9.1698
     9.1698   9.2116   9.2125   9.2708   9.2709   9.3067   9.3073   9.3365
     9.3503   9.3614   9.3616   9.3769   9.3771   9.4127   9.4137   9.4273
     9.4286   9.4468   9.4476   9.4547   9.4577   9.4583   9.5150   9.5599
     9.5788   9.5855   9.5856   9.5909   9.6439   9.6444   9.6698   9.6709
     9.6758   9.6761   9.7038   9.7450   9.7454   9.7971   9.7981   9.8503
     9.8514   9.8982   9.9251   9.9256   9.9565   9.9690  10.0331  10.0479
    10.1122  10.1130  10.1364  10.1373  10.2948  10.2957  10.2963  10.2977
    10.3024  10.3025  10.3033  10.3079  10.3090  10.3157  10.3165  10.3479
    10.3530  10.3544  10.3575  10.3592  10.3605  10.3653  10.3848  10.3968
    10.3978  10.5211  10.5215  10.5845  10.6136  10.6136  10.6210  10.6217
    10.7352  10.7359  10.7861  10.7878  10.8257  10.8260  10.8292  10.8472
    10.8484  10.8501  10.8615  10.8625  10.8776  10.8840  10.8852  10.8857
    10.9149  10.9156  10.9927  11.0555  11.0568  11.1171  11.2198  11.2243
    11.2255  11.2274  11.2633  11.3159  11.3173  11.3403  11.3408  11.3505
    11.3574  11.3580  11.3762  11.3768  11.3943  11.3949  11.4033  11.4126
    11.4197  11.4691  11.4698  11.5375  11.5924  11.5934  11.5961  11.5977
    11.6599  11.6606  11.7244  11.7376  11.7380  11.7550  11.7812  11.8322
    11.8327  11.8716  11.8742  11.8754  11.9023  11.9365  11.9377  11.9480
    11.9857  11.9867  12.0624  12.1014  12.1041  12.1047  12.1053  12.1449
    12.1452  12.1494  12.1496  12.1646  12.1648  12.1756  12.1790  12.2035
    12.2422  12.2470  12.2479  12.3233  12.3265  12.3523  12.4111  12.4123
    12.4303  12.4353  12.4440  12.4470  12.4906  12.4907  12.4997  12.5202
    12.5235  12.5309  12.5313  12.5652  12.5660  12.5859  12.5862  12.6504
    12.6957  12.6967  12.7578  12.7624  12.7639  12.8012  13.0876  13.1216
    13.1222  13.1764  13.2285  13.3771  13.3782  13.3785  13.7250  13.7252
    13.9351  13.9364  14.2231  14.2918  14.3193  14.3202  14.4513  14.4533
    14.7410  14.7417  14.9515  14.9544  15.1556  15.1625  15.1633  15.1889
    15.1901  15.2667  15.2674  15.4491  15.4492  15.4819  15.4828  15.6123
    15.6941  15.6946  15.7085  15.7942  15.7945  15.8397  15.8733  15.9476
    16.0126  16.0658  16.1101  16.1119  16.1434  16.1437  16.1789  16.1796
    16.2900  16.3096  16.3107  16.3444  16.3473  16.3575  16.3854  16.3867
    16.4457  16.4468  16.4505  16.5206  16.5218  16.7245  16.7251  16.9620
    16.9639  17.0252  17.0616  17.1332  17.2344  17.2349  17.2572  17.4036
    17.4048  17.5739  17.8899  17.9132  17.9140  17.9538  17.9542  18.2021
    18.2025  18.3412  18.3429  18.9279  19.0706  19.0708  19.0881  19.0891

[...]

          k =-0.5000-0.5000 0.0000 ( 31612 PWs)   bands (ev):

[...]

 ------ SPIN DOWN ----------

[...]

          k = 0.0000-0.5000-0.5734 ( 31696 PWs)   bands (ev):

[...]

          k =-0.5000 0.0000 0.5734 ( 31696 PWs)   bands (ev):

   -66.7835 -66.7832 -66.7731 -66.6757 -66.6754 -66.6647 -66.6132 -66.6101
   -66.6097 -62.4015 -62.3995 -62.3991 -62.3570 -62.3552 -62.3548 -62.3439
   -62.3436 -62.3419 -35.5422 -35.5417 -35.5360 -35.5345 -35.5292 -35.5190
   -35.5031 -35.5027 -35.4919 -35.4434 -35.4429 -35.4391 -35.4134 -35.4075
   -35.4055 -35.4041 -35.3952 -35.3907 -35.3638 -35.3572 -35.3554 -35.3551
   -35.3546 -35.3540 -35.3535 -35.3499 -35.3494 -31.2412 -31.2307 -31.2289
   -31.2278 -31.2254 -31.2247 -31.2156 -31.2156 -31.2147 -31.1888 -31.1879
   -31.1871 -31.1863 -31.1849 -31.1783 -31.1764 -31.1763 -31.1763 -31.1757
   -31.1751 -31.1746 -31.1739 -31.1734 -31.1734 -31.1522 -31.1516 -31.1483
     6.5534   6.5549   6.6101   6.6104   7.8379   7.8392   7.8835   7.8841
     7.8983   7.8996   7.9440   7.9440   8.2682   8.2786   8.2940   8.3033
     8.5029   8.5198   8.5419   8.5441   8.6358   8.6727   8.6741   8.6837
     8.6838   8.6981   8.7144   8.7161   8.7213   8.7218   8.7564   8.7568
     8.7624   8.7630   8.7704   8.8441   8.9722   8.9731   9.0254   9.0258
     9.0299   9.0432   9.0510   9.0774   9.2035   9.2050   9.2065   9.2121
     9.2122   9.2200   9.2203   9.2219   9.2225   9.2619   9.2620   9.2707
     9.2709   9.2823   9.2947   9.3080   9.3084   9.3153   9.3813   9.3819
     9.4241   9.4255   9.4584   9.4588   9.4596   9.4696   9.4904   9.4910
     9.5016   9.5017   9.5055   9.5057   9.5075   9.5426   9.5429   9.5522
     9.5522   9.5812   9.7546   9.7618   9.7759   9.7764   9.8186   9.8189
     9.8370   9.8384   9.8518   9.8533   9.8557   9.8572   9.8943   9.8950
     9.9841   9.9848   9.9860  10.0077  10.0096  10.0103  10.0599  10.0718
    10.3560  10.4023  10.4027  10.4058  10.4060  10.4279  10.4280  10.4579
    10.4670  10.4670  10.4725  10.4841  10.4871  10.4895  10.4896  10.4928
    10.5234  10.5246  10.5612  10.5863  10.6006  10.6009  10.6150  10.6151
    10.6593  10.6600  10.6672  10.6676  10.6992  10.7042  10.7046  10.7317
    10.7319  10.8071  10.8416  10.8757  10.9477  10.9681  11.0824  11.1078
    11.1098  11.1288  11.1292  11.1438  11.1643  11.1657  11.2014  11.2017
    11.2103  11.2142  11.2558  11.3618  11.3625  11.3718  11.3719  11.3754
    11.3756  11.3901  11.3911  11.3918  11.4831  11.4840  11.4893  11.5106
    11.5115  11.5267  11.5805  11.5806  11.5981  11.5989  11.6163  11.6397
    11.6400  11.6437  11.6447  11.7085  11.7535  11.8020  11.8188  11.8882
    11.8912  11.8918  11.9145  11.9384  11.9679  11.9687  11.9818  11.9820
    12.0376  12.0381  12.0381  12.0390  12.0764  12.0768  12.1254  12.1492
    12.1789  12.1807  12.1808  12.1972  12.2390  12.2407  12.2769  12.4028
    12.4111  12.4112  12.4156  12.4179  12.4368  12.4381  12.4416  12.4852
    12.4892  12.5044  12.5049  12.5229  12.5250  12.5643  12.6201  12.6319
    12.6320  12.6364  12.6392  12.6429  12.6558  12.7200  12.7741  12.7783
    12.7805  12.8122  12.8133  12.9053  12.9054  12.9260  12.9509  13.0489
    13.0889  13.0892  13.3377  13.3393  13.4256  13.5249  13.8135  13.8143
    13.9430  14.1404  14.1421  14.2733  14.2735  14.2836  14.3156  14.4095
    14.4255  14.4279  14.5347  14.5748  14.6791  14.6806  14.8255  14.8973
    14.9173  15.2820  15.2822  15.2902  15.2912  15.3923  15.3929  15.5737
    15.5742  15.8370  15.8377  15.8540  15.8885  15.8961  15.8973  15.9019
    15.9991  15.9994  16.0139  16.0146  16.1104  16.1376  16.1741  16.2096
    16.2103  16.2709  16.2711  16.2850  16.2973  16.3046  16.3068  16.4059
    16.4062  16.5332  16.5355  16.6279  16.6810  16.7452  16.7456  16.8203
    16.8274  16.8276  16.9462  16.9465  16.9671  16.9846  17.0078  17.0082
    17.0742  17.0748  17.2345  17.2356  18.5458  18.5928  18.6351  18.6597
    18.7712  18.8480  18.8484  18.8584  18.8902  18.9179  18.9179  18.9423

     the Fermi energy is    14.8445 ev

!    total energy              =  -33062.60092871 Ry
     Harris-Foulkes estimate   =  -33062.60092860 Ry
     estimated scf accuracy    <       0.00000092 Ry

     total all-electron energy =  -1410574.691303 Ry

     The total energy is the sum of the following terms:

     one-electron contribution =   -1645.62044709 Ry
     hartree contribution      =    1489.84598060 Ry
     xc contribution           =   -1658.75134791 Ry
     ewald contribution        =   -4919.25534656 Ry
     one-center paw contrib.   =  -26328.81976776 Ry

     total magnetization       =     0.00 Bohr mag/cell
     absolute magnetization    =    78.88 Bohr mag/cell

     convergence has been achieved in  58 iterations

     Writing output data file mnau2.save

     General routines

     Parallel routines

   This run was terminated on:  19:37:45   8Mar2019

   JOB DONE.