     Program PWSCF v.6.2 (svn rev. 14038) starts on  8Mar2019 at  2:28:31

     R & G space division:  proc/nbgrp/npool/nimage =      16
     Waiting for input...
     Reading input from standard input

     Current dimensions of program PWSCF are:
     Max number of different atomic species (ntypx) = 10
     Max number of k-points (npk) =  40000
     Max angular momentum in pseudopotentials (lmaxx) =  3
               file Mn.pbe-spn-kjpaw_psl.0.3.1.UPF: wavefunction(s)  3P 3D renormalized
               file Mn.pbe-spn-kjpaw_psl.0.3.1.UPF: wavefunction(s)  3P 3D renormalized
               file Au.pbe-dn-kjpaw_psl.0.1.UPF: wavefunction(s)  6S 6P 5D renormalized

     Subspace diagonalization in iterative solution of the eigenvalue problem:
     a serial algorithm will be used

     bravais-lattice index     =            0
     lattice parameter (alat)  =      19.2459  a.u.
     unit-cell volume          =    6216.1497 (a.u.)^3
     number of atoms/cell      =           54
     number of atomic types    =            3
     number of electrons       =       666.00
     number of Kohn-Sham states=          400
     kinetic-energy cutoff     =      45.0000  Ry
     charge density cutoff     =     400.0000  Ry
     convergence threshold     =      1.0E-06
     mixing beta               =       0.1000
     number of iterations used =            8  plain     mixing
     Exchange-correlation      = SLA PW PBX PBC ( 1  4  3  4 0 0)

     celldm(1)=  19.245946  celldm(2)=   0.000000  celldm(3)=   0.000000
     celldm(4)=   0.000000  celldm(5)=   0.000000  celldm(6)=   0.000000

     crystal axes: (cart. coord. in units of alat)
               a(1) = (   1.000000   0.000000   0.000000 )
               a(2) = (   0.000000   1.000000   0.000000 )
               a(3) = (   0.000000   0.000000   0.871974 )

     reciprocal axes: (cart. coord. in units 2 pi/alat)
               b(1) = (  1.000000  0.000000  0.000000 )
               b(2) = (  0.000000  1.000000  0.000000 )
               b(3) = (  0.000000  0.000000  1.146823 )

     PseudoPot. # 1 for Mn read from file:
     ./pseudo/Mn.pbe-spn-kjpaw_psl.0.3.1.UPF
     MD5 check sum: 7eef95dd2aae66803482eea66ebeebf1
     Pseudo is Projector augmented-wave + core cor, Zval = 15.0
     Generated using "atomic" code by A. Dal Corso v.5.0.99 svn rev. 10869
     Shape of augmentation charge: PSQ
     Using radial grid of 1187 points,  6 beta functions with:
                l(1) =   0
                l(2) =   0
                l(3) =   1
                l(4) =   1
                l(5) =   2
                l(6) =   2
     Q(r) pseudized with 0 coefficients

     PseudoPot. # 2 for Mn read from file:
     ./pseudo/Mn.pbe-spn-kjpaw_psl.0.3.1.UPF
     MD5 check sum: 7eef95dd2aae66803482eea66ebeebf1
     Pseudo is Projector augmented-wave + core cor, Zval = 15.0
     Generated using "atomic" code by A. Dal Corso v.5.0.99 svn rev. 10869
     Shape of augmentation charge: PSQ
     Using radial grid of 1187 points,  6 beta functions with:
                l(1) =   0
                l(2) =   0
                l(3) =   1
                l(4) =   1
                l(5) =   2
                l(6) =   2
     Q(r) pseudized with 0 coefficients

     PseudoPot. # 3 for Au read from file:
     ./pseudo/Au.pbe-dn-kjpaw_psl.0.1.UPF
     MD5 check sum: 5c9b92683623e7ae2ab3f8e525febab6
     Pseudo is Projector augmented-wave + core cor, Zval = 11.0
     Generated using "atomic" code by A. Dal Corso v.5.0.2 svn rev. 9415
     Shape of augmentation charge: PSQ
     Using radial grid of 1279 points,  6 beta functions with:
                l(1) =   0
                l(2) =   0
                l(3) =   1
                l(4) =   1
                l(5) =   2
                l(6) =   2
     Q(r) pseudized with 0 coefficients

     atomic species   valence    mass     pseudopotential
        Mn1           15.00    54.93800     Mn( 1.00)
        Mn2           15.00    54.93800     Mn( 1.00)
        Au            11.00   196.96600     Au( 1.00)

     Starting magnetic structure
     atomic species   magnetization
        Mn1          0.800
        Mn2         -0.800
        Au           0.000

      2 Sym. Ops. (no inversion) found

   Cartesian axes

     site n.     atom                  positions (alat units)
         1           Mn1 tau(   1) = (   0.0000000   0.0000000   0.0000000  )
         2           Mn2 tau(   2) = (   0.0000000   0.3333300   0.0000000  )
         3           Mn2 tau(   3) = (   0.0000000   0.6666700   0.0000000  )
         4           Mn1 tau(   4) = (   0.3333300   0.0000000   0.0000000  )
         5           Mn1 tau(   5) = (   0.3333300   0.3333300   0.0000000  )
         6           Mn1 tau(   6) = (   0.3333300   0.6666700   0.0000000  )
         7           Mn1 tau(   7) = (   0.6666700   0.0000000   0.0000000  )
         8           Mn1 tau(   8) = (   0.6666700   0.3333300   0.0000000  )
         9           Mn1 tau(   9) = (   0.6666700   0.6666700   0.0000000  )
        10           Mn2 tau(  10) = (   0.1666700   0.1666700   0.4359871  )
        11           Mn1 tau(  11) = (   0.1666700   0.5000000   0.4359871  )
        12           Mn1 tau(  12) = (   0.1666700   0.8333300   0.4359871  )
        13           Mn2 tau(  13) = (   0.5000000   0.1666700   0.4359871  )
        14           Mn2 tau(  14) = (   0.5000000   0.5000000   0.4359871  )
        15           Mn2 tau(  15) = (   0.5000000   0.8333300   0.4359871  )
        16           Mn2 tau(  16) = (   0.8333300   0.1666700   0.4359871  )
        17           Mn2 tau(  17) = (   0.8333300   0.5000000   0.4359871  )
        18           Mn2 tau(  18) = (   0.8333300   0.8333300   0.4359871  )
        19           Au  tau(  19) = (   0.1666700   0.1666700   0.7327374  )
        20           Au  tau(  20) = (   0.1666700   0.5000000   0.7327374  )
        21           Au  tau(  21) = (   0.1666700   0.8333300   0.7327374  )
        22           Au  tau(  22) = (   0.5000000   0.1666700   0.7327374  )
        23           Au  tau(  23) = (   0.5000000   0.5000000   0.7327374  )
        24           Au  tau(  24) = (   0.5000000   0.8333300   0.7327374  )
        25           Au  tau(  25) = (   0.8333300   0.1666700   0.7327374  )
        26           Au  tau(  26) = (   0.8333300   0.5000000   0.7327374  )
        27           Au  tau(  27) = (   0.8333300   0.8333300   0.7327374  )
        28           Au  tau(  28) = (   0.1666700   0.1666700   0.1392369  )
        29           Au  tau(  29) = (   0.1666700   0.5000000   0.1392369  )
        30           Au  tau(  30) = (   0.1666700   0.8333300   0.1392369  )
        31           Au  tau(  31) = (   0.5000000   0.1666700   0.1392369  )
        32           Au  tau(  32) = (   0.5000000   0.5000000   0.1392369  )
        33           Au  tau(  33) = (   0.5000000   0.8333300   0.1392369  )
        34           Au  tau(  34) = (   0.8333300   0.1666700   0.1392369  )
        35           Au  tau(  35) = (   0.8333300   0.5000000   0.1392369  )
        36           Au  tau(  36) = (   0.8333300   0.8333300   0.1392369  )
        37           Au  tau(  37) = (   0.0000000   0.0000000   0.2967503  )
        38           Au  tau(  38) = (   0.0000000   0.3333300   0.2967503  )
        39           Au  tau(  39) = (   0.0000000   0.6666700   0.2967503  )
        40           Au  tau(  40) = (   0.3333300   0.0000000   0.2967503  )
        41           Au  tau(  41) = (   0.3333300   0.3333300   0.2967503  )
        42           Au  tau(  42) = (   0.3333300   0.6666700   0.2967503  )
        43           Au  tau(  43) = (   0.6666700   0.0000000   0.2967503  )
        44           Au  tau(  44) = (   0.6666700   0.3333300   0.2967503  )
        45           Au  tau(  45) = (   0.6666700   0.6666700   0.2967503  )
        46           Au  tau(  46) = (   0.0000000   0.0000000   0.5752240  )
        47           Au  tau(  47) = (   0.0000000   0.3333300   0.5752240  )
        48           Au  tau(  48) = (   0.0000000   0.6666700   0.5752240  )
        49           Au  tau(  49) = (   0.3333300   0.0000000   0.5752240  )
        50           Au  tau(  50) = (   0.3333300   0.3333300   0.5752240  )
        51           Au  tau(  51) = (   0.3333300   0.6666700   0.5752240  )
        52           Au  tau(  52) = (   0.6666700   0.0000000   0.5752240  )
        53           Au  tau(  53) = (   0.6666700   0.3333300   0.5752240  )
        54           Au  tau(  54) = (   0.6666700   0.6666700   0.5752240  )

     number of k points=     8 (tetrahedron method)
                       cart. coord. in units 2pi/alat
        k(    1) = (   0.0000000   0.0000000   0.0000000), wk =   0.1250000
        k(    2) = (   0.0000000   0.0000000  -0.5734114), wk =   0.1250000
        k(    3) = (   0.0000000  -0.5000000   0.0000000), wk =   0.1250000
        k(    4) = (   0.0000000  -0.5000000  -0.5734114), wk =   0.1250000
        k(    5) = (  -0.5000000  -0.5000000   0.0000000), wk =   0.1250000
        k(    6) = (  -0.5000000  -0.5000000  -0.5734114), wk =   0.1250000
        k(    7) = (  -0.5000000   0.0000000   0.0000000), wk =   0.1250000
        k(    8) = (  -0.5000000   0.0000000   0.5734114), wk =   0.1250000

     Check: negative/imaginary core charge=   -0.000006    0.000000

     Initial potential from superposition of free atoms

     starting charge  665.98709, renormalised to  666.00000
     Starting wfc are  504 randomized atomic wfcs
     Checking if some PAW data can be deallocated...

     Self-consistent Calculation

     iteration #  1     ecut=    45.00 Ry     beta= 0.10
     Davidson diagonalization with overlap
     ethr =  1.00E-02,  avg # of iterations =  3.1

     total energy              =  -33047.16803689 Ry
     Harris-Foulkes estimate   =  -33044.00575716 Ry
     estimated scf accuracy    <      27.02959811 Ry

     total magnetization       =     0.01 Bohr mag/cell
     absolute magnetization    =    92.12 Bohr mag/cell

[...]

     total energy              =  -33062.61059140 Ry
     Harris-Foulkes estimate   =  -33062.61058832 Ry
     estimated scf accuracy    <       0.00000148 Ry

[...]

     iteration # 24     ecut=    45.00 Ry     beta= 0.10
     Davidson diagonalization with overlap
     ethr =  2.22E-10,  avg # of iterations =  2.1

     Magnetic moment per site:
     atom:    1    charge:   13.5802    magn:    3.9787    constr:    0.0000
     atom:    2    charge:   13.5763    magn:   -4.0267    constr:    0.0000
     atom:    3    charge:   13.5728    magn:   -4.0533    constr:    0.0000
     atom:    4    charge:   13.5785    magn:    3.9714    constr:    0.0000
     atom:    5    charge:   13.5797    magn:    3.9771    constr:    0.0000
     atom:    6    charge:   13.5810    magn:    3.9645    constr:    0.0000
     atom:    7    charge:   13.5706    magn:    4.0458    constr:    0.0000
     atom:    8    charge:   13.5690    magn:    4.0604    constr:    0.0000
     atom:    9    charge:   13.5749    magn:    4.0125    constr:    0.0000
     atom:   10    charge:   13.5803    magn:   -3.9787    constr:    0.0000
     atom:   11    charge:   13.5728    magn:    4.0533    constr:    0.0000
     atom:   12    charge:   13.5764    magn:    4.0267    constr:    0.0000
     atom:   13    charge:   13.5706    magn:   -4.0458    constr:    0.0000
     atom:   14    charge:   13.5748    magn:   -4.0125    constr:    0.0000
     atom:   15    charge:   13.5691    magn:   -4.0605    constr:    0.0000
     atom:   16    charge:   13.5786    magn:   -3.9714    constr:    0.0000
     atom:   17    charge:   13.5810    magn:   -3.9645    constr:    0.0000
     atom:   18    charge:   13.5798    magn:   -3.9771    constr:    0.0000
     atom:   19    charge:    9.1198    magn:    0.0166    constr:    0.0000
     atom:   20    charge:    9.1213    magn:    0.0090    constr:    0.0000
     atom:   21    charge:    9.1201    magn:    0.0409    constr:    0.0000
     atom:   22    charge:    9.1206    magn:    0.0460    constr:    0.0000
     atom:   23    charge:    9.1208    magn:    0.0525    constr:    0.0000
     atom:   24    charge:    9.1203    magn:    0.0472    constr:    0.0000
     atom:   25    charge:    9.1214    magn:    0.0185    constr:    0.0000
     atom:   26    charge:    9.1218    magn:   -0.0080    constr:    0.0000
     atom:   27    charge:    9.1217    magn:    0.0180    constr:    0.0000
     atom:   28    charge:    9.1198    magn:    0.0166    constr:    0.0000
     atom:   29    charge:    9.1213    magn:    0.0090    constr:    0.0000
     atom:   30    charge:    9.1201    magn:    0.0409    constr:    0.0000
     atom:   31    charge:    9.1206    magn:    0.0460    constr:    0.0000
     atom:   32    charge:    9.1208    magn:    0.0525    constr:    0.0000
     atom:   33    charge:    9.1203    magn:    0.0472    constr:    0.0000
     atom:   34    charge:    9.1214    magn:    0.0185    constr:    0.0000
     atom:   35    charge:    9.1218    magn:   -0.0080    constr:    0.0000
     atom:   36    charge:    9.1217    magn:    0.0180    constr:    0.0000
     atom:   37    charge:    9.1199    magn:   -0.0166    constr:    0.0000
     atom:   38    charge:    9.1202    magn:   -0.0409    constr:    0.0000
     atom:   39    charge:    9.1214    magn:   -0.0090    constr:    0.0000
     atom:   40    charge:    9.1215    magn:   -0.0184    constr:    0.0000
     atom:   41    charge:    9.1216    magn:   -0.0180    constr:    0.0000
     atom:   42    charge:    9.1218    magn:    0.0081    constr:    0.0000
     atom:   43    charge:    9.1207    magn:   -0.0460    constr:    0.0000
     atom:   44    charge:    9.1203    magn:   -0.0472    constr:    0.0000
     atom:   45    charge:    9.1208    magn:   -0.0526    constr:    0.0000
     atom:   46    charge:    9.1199    magn:   -0.0166    constr:    0.0000
     atom:   47    charge:    9.1202    magn:   -0.0409    constr:    0.0000
     atom:   48    charge:    9.1214    magn:   -0.0090    constr:    0.0000
     atom:   49    charge:    9.1215    magn:   -0.0184    constr:    0.0000
     atom:   50    charge:    9.1216    magn:   -0.0180    constr:    0.0000
     atom:   51    charge:    9.1218    magn:    0.0081    constr:    0.0000
     atom:   52    charge:    9.1207    magn:   -0.0460    constr:    0.0000
     atom:   53    charge:    9.1203    magn:   -0.0472    constr:    0.0000
     atom:   54    charge:    9.1208    magn:   -0.0526    constr:    0.0000

     End of self-consistent calculation

 ------ SPIN UP ------------

          k = 0.0000 0.0000 0.0000 ( 31747 PWs)   bands (ev):

   -66.7876 -66.7540 -66.7088 -66.7069 -66.6636 -66.6467 -66.6389 -66.6342
   -66.6171 -62.4138 -62.3917 -62.3852 -62.3593 -62.3505 -62.3493 -62.3477
   -62.3414 -62.3335 -35.5417 -35.5301 -35.5176 -35.5140 -35.4957 -35.4790
   -35.4634 -35.4607 -35.4583 -35.4564 -35.4392 -35.4358 -35.4330 -35.4097
   -35.4049 -35.4015 -35.3963 -35.3914 -35.3889 -35.3830 -35.3800 -35.3768
   -35.3760 -35.3710 -35.3551 -35.3536 -35.3337 -31.2502 -31.2475 -31.2309
   -31.2200 -31.2186 -31.2180 -31.2134 -31.2078 -31.2015 -31.1996 -31.1960
   -31.1958 -31.1856 -31.1817 -31.1798 -31.1754 -31.1744 -31.1727 -31.1695
   -31.1685 -31.1677 -31.1652 -31.1573 -31.1531 -31.1507 -31.1498 -31.1459
     5.6143   7.1506   7.1598   7.1942   7.2059   7.3658   7.8592   7.8883
     7.9118   7.9428   8.0843   8.1088   8.1348   8.1530   8.1909   8.2440
     8.2618   8.2923   8.3104   8.5237   8.5494   8.5641   8.5693   8.5945
     8.6035   8.8571   8.8676   8.8686   8.8789   8.8852   8.8932   8.9016
     8.9030   8.9058   8.9139   8.9168   8.9309   8.9409   8.9622   8.9637
     8.9867   9.0852   9.1194   9.1266   9.1285   9.1312   9.1594   9.1602
     9.1884   9.2011   9.2120   9.2690   9.2780   9.2936   9.3060   9.3526
     9.3556   9.3619   9.3719   9.3763   9.3821   9.3852   9.4126   9.4259
     9.4460   9.4481   9.4556   9.4663   9.4672   9.4726   9.4956   9.5813
     9.5838   9.5839   9.5886   9.5912   9.6138   9.6582   9.6684   9.6725
     9.6736   9.6765   9.6809   9.7403   9.7584   9.7731   9.7930   9.8493
     9.8506   9.9121   9.9207   9.9505   9.9550   9.9637  10.0164  10.0374
    10.0967  10.1286  10.1363  10.1583  10.2923  10.2931  10.2954  10.2997
    10.3009  10.3063  10.3064  10.3117  10.3117  10.3249  10.3342  10.3455
    10.3496  10.3511  10.3546  10.3564  10.3616  10.3657  10.3810  10.3853
    10.4009  10.5134  10.5166  10.5533  10.5705  10.6181  10.6219  10.6425
    10.6915  10.7846  10.7869  10.8140  10.8198  10.8266  10.8321  10.8492
    10.8539  10.8596  10.8629  10.8746  10.8780  10.8824  10.8989  10.9138
    10.9171  10.9180  11.0143  11.0351  11.0757  11.0979  11.2207  11.2226
    11.2265  11.2289  11.2570  11.2751  11.3070  11.3282  11.3339  11.3460
    11.3548  11.3669  11.3880  11.3916  11.4015  11.4090  11.4152  11.4217
    11.4398  11.4651  11.5322  11.5549  11.5912  11.5939  11.5967  11.5980
    11.5987  11.6679  11.7049  11.7271  11.7314  11.7318  11.7442  11.7493
    11.8302  11.8332  11.8364  11.8719  11.8730  11.9096  11.9272  11.9454
    11.9494  12.0144  12.0809  12.1012  12.1021  12.1035  12.1061  12.1443
    12.1458  12.1479  12.1494  12.1617  12.1740  12.1813  12.1915  12.2320
    12.2450  12.2463  12.3228  12.3358  12.3423  12.3619  12.3683  12.4260
    12.4290  12.4346  12.4430  12.4734  12.4883  12.5003  12.5034  12.5144
    12.5168  12.5416  12.5418  12.5551  12.5626  12.5766  12.5871  12.6514
    12.7003  12.7082  12.7438  12.7541  12.9973  13.0300  13.0913  13.1061
    13.1300  13.1310  13.1781  13.1886  13.3759  13.4663  13.6750  13.8220
    13.8389  13.9612  14.0070  14.2395  14.2436  14.3452  14.3519  14.5018
    14.7791  14.8898  14.9450  15.0461  15.0522  15.1534  15.1835  15.2345
    15.2953  15.3344  15.3729  15.3932  15.4472  15.4663  15.5182  15.5774
    15.6579  15.6584  15.7347  15.7559  15.7845  15.7981  15.9152  15.9224
    16.0063  16.0822  16.1080  16.1099  16.1147  16.1455  16.1791  16.2119
    16.2215  16.2444  16.2787  16.3404  16.3622  16.3668  16.3780  16.4386
    16.4472  16.4671  16.4737  16.5808  16.6417  16.6510  16.7560  16.8495
    16.9770  17.0302  17.1653  17.1908  17.2028  17.2472  17.2637  17.3294
    17.5021  17.5523  17.8673  17.9114  17.9335  17.9474  17.9713  18.0366
    18.1153  18.2166  18.3698  18.9817  19.0337  19.0341  19.1562  19.2289

[...]

          k =-0.5000-0.5000 0.0000 ( 31612 PWs)   bands (ev):

[...]

 ------ SPIN DOWN ----------

[...]

          k = 0.0000-0.5000-0.5734 ( 31696 PWs)   bands (ev):

[...]

          k =-0.5000 0.0000 0.5734 ( 31696 PWs)   bands (ev):

   -66.7877 -66.7541 -66.7089 -66.7069 -66.6636 -66.6466 -66.6389 -66.6342
   -66.6171 -62.4137 -62.3917 -62.3851 -62.3594 -62.3505 -62.3493 -62.3477
   -62.3414 -62.3336 -35.5418 -35.5302 -35.5178 -35.5140 -35.4958 -35.4790
   -35.4635 -35.4606 -35.4584 -35.4564 -35.4392 -35.4358 -35.4332 -35.4097
   -35.4049 -35.4013 -35.3963 -35.3914 -35.3888 -35.3830 -35.3799 -35.3767
   -35.3759 -35.3710 -35.3550 -35.3536 -35.3337 -31.2501 -31.2474 -31.2308
   -31.2202 -31.2185 -31.2180 -31.2133 -31.2074 -31.2016 -31.1996 -31.1960
   -31.1958 -31.1855 -31.1817 -31.1798 -31.1754 -31.1744 -31.1727 -31.1696
   -31.1685 -31.1678 -31.1652 -31.1573 -31.1532 -31.1508 -31.1498 -31.1459
     6.4979   6.5809   6.5921   6.6682   7.8212   7.8262   7.8605   7.8742
     7.9056   7.9274   7.9428   7.9547   8.2618   8.2844   8.2961   8.3029
     8.5151   8.5234   8.5275   8.5391   8.6561   8.6675   8.6733   8.6825
     8.6890   8.6965   8.7008   8.7149   8.7283   8.7301   8.7490   8.7497
     8.7681   8.7688   8.7805   8.8258   8.9263   8.9951   9.0173   9.0235
     9.0335   9.0650   9.0700   9.0778   9.1555   9.1980   9.2061   9.2204
     9.2301   9.2305   9.2329   9.2379   9.2405   9.2453   9.2559   9.2592
     9.2608   9.2655   9.2732   9.2760   9.2865   9.3807   9.3858   9.3926
     9.4054   9.4264   9.4534   9.4551   9.4704   9.4713   9.4759   9.4781
     9.4821   9.4844   9.5072   9.5100   9.5275   9.5444   9.5633   9.5709
     9.5869   9.6310   9.7520   9.7614   9.7831   9.7885   9.7920   9.8199
     9.8280   9.8300   9.8444   9.8499   9.8622   9.8721   9.8846   9.8893
     9.9443   9.9708  10.0053  10.0104  10.0322  10.0378  10.0556  10.0614
    10.3540  10.3754  10.3758  10.3861  10.4079  10.4190  10.4252  10.4284
    10.4332  10.4588  10.4713  10.4843  10.4862  10.4919  10.4962  10.5371
    10.5463  10.5606  10.5777  10.5838  10.5914  10.6036  10.6160  10.6257
    10.6546  10.6582  10.6725  10.6732  10.6814  10.6953  10.7138  10.7185
    10.7285  10.8559  10.8578  10.8947  10.9737  11.0032  11.0121  11.0854
    11.1146  11.1202  11.1268  11.1795  11.1866  11.1948  11.1953  11.2032
    11.2111  11.2144  11.2725  11.3308  11.3337  11.3355  11.3641  11.3698
    11.3706  11.3827  11.4054  11.4422  11.4503  11.4633  11.4753  11.5354
    11.5367  11.5657  11.5680  11.5712  11.5782  11.5825  11.5920  11.6024
    11.6321  11.6356  11.7216  11.7239  11.7370  11.7512  11.7723  11.8021
    11.8870  11.8979  11.9101  11.9568  11.9600  11.9656  11.9793  12.0051
    12.0122  12.0211  12.0216  12.0319  12.0354  12.0399  12.0955  12.1268
    12.1576  12.1800  12.1923  12.2033  12.2239  12.2443  12.3211  12.3384
    12.3828  12.3891  12.4050  12.4257  12.4463  12.4478  12.4554  12.4690
    12.4795  12.4907  12.5093  12.5139  12.5567  12.5614  12.5860  12.5867
    12.6327  12.6463  12.6478  12.6629  12.7054  12.7539  12.8497  12.8543
    12.8651  12.8865  12.9463  12.9983  13.0181  13.0318  13.0345  13.0733
    13.1574  13.1878  13.2639  13.3491  13.5220  13.5361  13.6821  13.7722
    13.7778  13.9307  14.0267  14.0456  14.1397  14.1409  14.1756  14.3733
    14.4168  14.5328  14.5758  14.6091  14.6284  14.7431  14.8177  15.0487
    15.1412  15.1902  15.2853  15.3881  15.4627  15.4724  15.5213  15.5565
    15.6334  15.6474  15.6954  15.7214  15.7278  15.7954  15.8941  16.0907
    16.1017  16.1089  16.1355  16.1534  16.1564  16.1811  16.2096  16.2097
    16.2548  16.2793  16.2892  16.2937  16.3281  16.3954  16.4680  16.4723
    16.5055  16.5363  16.5555  16.6111  16.6133  16.6352  16.6909  16.6944
    16.7002  16.7561  16.7760  16.8489  16.8754  16.9194  16.9699  16.9841
    17.0828  17.1010  17.2075  17.2921  18.6125  18.6674  18.7585  18.7622
    18.7840  18.7888  18.7944  18.8454  18.8794  18.8928  18.9456  18.9906

     the Fermi energy is    14.8423 ev

!    total energy              =  -33062.61060335 Ry
     Harris-Foulkes estimate   =  -33062.61059036 Ry
     estimated scf accuracy    <       0.00000068 Ry

     total all-electron energy =  -1410574.700978 Ry

     The total energy is the sum of the following terms:

     one-electron contribution =   -1645.67281355 Ry
     hartree contribution      =    1489.88523664 Ry
     xc contribution           =   -1658.75247300 Ry
     ewald contribution        =   -4919.25534656 Ry
     one-center paw contrib.   =  -26328.81520688 Ry

     total magnetization       =     0.00 Bohr mag/cell
     absolute magnetization    =    78.95 Bohr mag/cell

     convergence has been achieved in  24 iterations

     Writing output data file mnau2.save

     General routines

     Parallel routines

   This run was terminated on:   3: 8:50   8Mar2019

   JOB DONE.