     Program PWSCF v.6.2 (svn rev. 14038) starts on  8Mar2019 at  4:25:12

     R & G space division:  proc/nbgrp/npool/nimage =      16
     Waiting for input...
     Reading input from standard input

     Current dimensions of program PWSCF are:
     Max number of different atomic species (ntypx) = 10
     Max number of k-points (npk) =  40000
     Max angular momentum in pseudopotentials (lmaxx) =  3
               file Mn.pbe-spn-kjpaw_psl.0.3.1.UPF: wavefunction(s)  3P 3D renormalized
               file Mn.pbe-spn-kjpaw_psl.0.3.1.UPF: wavefunction(s)  3P 3D renormalized
               file Au.pbe-dn-kjpaw_psl.0.1.UPF: wavefunction(s)  6S 6P 5D renormalized

     Subspace diagonalization in iterative solution of the eigenvalue problem:
     a serial algorithm will be used

     bravais-lattice index     =            0
     lattice parameter (alat)  =      19.2459  a.u.
     unit-cell volume          =    6216.1497 (a.u.)^3
     number of atoms/cell      =           54
     number of atomic types    =            3
     number of electrons       =       666.00
     number of Kohn-Sham states=          400
     kinetic-energy cutoff     =      45.0000  Ry
     charge density cutoff     =     400.0000  Ry
     convergence threshold     =      1.0E-06
     mixing beta               =       0.1000
     number of iterations used =            8  plain     mixing
     Exchange-correlation      = SLA PW PBX PBC ( 1  4  3  4 0 0)

     celldm(1)=  19.245946  celldm(2)=   0.000000  celldm(3)=   0.000000
     celldm(4)=   0.000000  celldm(5)=   0.000000  celldm(6)=   0.000000

     crystal axes: (cart. coord. in units of alat)
               a(1) = (   1.000000   0.000000   0.000000 )
               a(2) = (   0.000000   1.000000   0.000000 )
               a(3) = (   0.000000   0.000000   0.871974 )

     reciprocal axes: (cart. coord. in units 2 pi/alat)
               b(1) = (  1.000000  0.000000  0.000000 )
               b(2) = (  0.000000  1.000000  0.000000 )
               b(3) = (  0.000000  0.000000  1.146823 )

     PseudoPot. # 1 for Mn read from file:
     ./pseudo/Mn.pbe-spn-kjpaw_psl.0.3.1.UPF
     MD5 check sum: 7eef95dd2aae66803482eea66ebeebf1
     Pseudo is Projector augmented-wave + core cor, Zval = 15.0
     Generated using "atomic" code by A. Dal Corso v.5.0.99 svn rev. 10869
     Shape of augmentation charge: PSQ
     Using radial grid of 1187 points,  6 beta functions with:
                l(1) =   0
                l(2) =   0
                l(3) =   1
                l(4) =   1
                l(5) =   2
                l(6) =   2
     Q(r) pseudized with 0 coefficients

     PseudoPot. # 2 for Mn read from file:
     ./pseudo/Mn.pbe-spn-kjpaw_psl.0.3.1.UPF
     MD5 check sum: 7eef95dd2aae66803482eea66ebeebf1
     Pseudo is Projector augmented-wave + core cor, Zval = 15.0
     Generated using "atomic" code by A. Dal Corso v.5.0.99 svn rev. 10869
     Shape of augmentation charge: PSQ
     Using radial grid of 1187 points,  6 beta functions with:
                l(1) =   0
                l(2) =   0
                l(3) =   1
                l(4) =   1
                l(5) =   2
                l(6) =   2
     Q(r) pseudized with 0 coefficients

     PseudoPot. # 3 for Au read from file:
     ./pseudo/Au.pbe-dn-kjpaw_psl.0.1.UPF
     MD5 check sum: 5c9b92683623e7ae2ab3f8e525febab6
     Pseudo is Projector augmented-wave + core cor, Zval = 11.0
     Generated using "atomic" code by A. Dal Corso v.5.0.2 svn rev. 9415
     Shape of augmentation charge: PSQ
     Using radial grid of 1279 points,  6 beta functions with:
                l(1) =   0
                l(2) =   0
                l(3) =   1
                l(4) =   1
                l(5) =   2
                l(6) =   2
     Q(r) pseudized with 0 coefficients

     atomic species   valence    mass     pseudopotential
        Mn1           15.00    54.93800     Mn( 1.00)
        Mn2           15.00    54.93800     Mn( 1.00)
        Au            11.00   196.96600     Au( 1.00)

     Starting magnetic structure
     atomic species   magnetization
        Mn1          0.800
        Mn2         -0.800
        Au           0.000

      2 Sym. Ops. (no inversion) found

   Cartesian axes

     site n.     atom                  positions (alat units)
         1           Mn1 tau(   1) = (   0.0000000   0.0000000   0.0000000  )
         2           Mn2 tau(   2) = (   0.0000000   0.3333300   0.0000000  )
         3           Mn2 tau(   3) = (   0.0000000   0.6666700   0.0000000  )
         4           Mn1 tau(   4) = (   0.3333300   0.0000000   0.0000000  )
         5           Mn1 tau(   5) = (   0.3333300   0.3333300   0.0000000  )
         6           Mn1 tau(   6) = (   0.3333300   0.6666700   0.0000000  )
         7           Mn1 tau(   7) = (   0.6666700   0.0000000   0.0000000  )
         8           Mn2 tau(   8) = (   0.6666700   0.3333300   0.0000000  )
         9           Mn2 tau(   9) = (   0.6666700   0.6666700   0.0000000  )
        10           Mn2 tau(  10) = (   0.1666700   0.1666700   0.4359871  )
        11           Mn1 tau(  11) = (   0.1666700   0.5000000   0.4359871  )
        12           Mn1 tau(  12) = (   0.1666700   0.8333300   0.4359871  )
        13           Mn2 tau(  13) = (   0.5000000   0.1666700   0.4359871  )
        14           Mn2 tau(  14) = (   0.5000000   0.5000000   0.4359871  )
        15           Mn2 tau(  15) = (   0.5000000   0.8333300   0.4359871  )
        16           Mn2 tau(  16) = (   0.8333300   0.1666700   0.4359871  )
        17           Mn1 tau(  17) = (   0.8333300   0.5000000   0.4359871  )
        18           Mn1 tau(  18) = (   0.8333300   0.8333300   0.4359871  )
        19           Au  tau(  19) = (   0.1666700   0.1666700   0.7327374  )
        20           Au  tau(  20) = (   0.1666700   0.5000000   0.7327374  )
        21           Au  tau(  21) = (   0.1666700   0.8333300   0.7327374  )
        22           Au  tau(  22) = (   0.5000000   0.1666700   0.7327374  )
        23           Au  tau(  23) = (   0.5000000   0.5000000   0.7327374  )
        24           Au  tau(  24) = (   0.5000000   0.8333300   0.7327374  )
        25           Au  tau(  25) = (   0.8333300   0.1666700   0.7327374  )
        26           Au  tau(  26) = (   0.8333300   0.5000000   0.7327374  )
        27           Au  tau(  27) = (   0.8333300   0.8333300   0.7327374  )
        28           Au  tau(  28) = (   0.1666700   0.1666700   0.1392369  )
        29           Au  tau(  29) = (   0.1666700   0.5000000   0.1392369  )
        30           Au  tau(  30) = (   0.1666700   0.8333300   0.1392369  )
        31           Au  tau(  31) = (   0.5000000   0.1666700   0.1392369  )
        32           Au  tau(  32) = (   0.5000000   0.5000000   0.1392369  )
        33           Au  tau(  33) = (   0.5000000   0.8333300   0.1392369  )
        34           Au  tau(  34) = (   0.8333300   0.1666700   0.1392369  )
        35           Au  tau(  35) = (   0.8333300   0.5000000   0.1392369  )
        36           Au  tau(  36) = (   0.8333300   0.8333300   0.1392369  )
        37           Au  tau(  37) = (   0.0000000   0.0000000   0.2967503  )
        38           Au  tau(  38) = (   0.0000000   0.3333300   0.2967503  )
        39           Au  tau(  39) = (   0.0000000   0.6666700   0.2967503  )
        40           Au  tau(  40) = (   0.3333300   0.0000000   0.2967503  )
        41           Au  tau(  41) = (   0.3333300   0.3333300   0.2967503  )
        42           Au  tau(  42) = (   0.3333300   0.6666700   0.2967503  )
        43           Au  tau(  43) = (   0.6666700   0.0000000   0.2967503  )
        44           Au  tau(  44) = (   0.6666700   0.3333300   0.2967503  )
        45           Au  tau(  45) = (   0.6666700   0.6666700   0.2967503  )
        46           Au  tau(  46) = (   0.0000000   0.0000000   0.5752240  )
        47           Au  tau(  47) = (   0.0000000   0.3333300   0.5752240  )
        48           Au  tau(  48) = (   0.0000000   0.6666700   0.5752240  )
        49           Au  tau(  49) = (   0.3333300   0.0000000   0.5752240  )
        50           Au  tau(  50) = (   0.3333300   0.3333300   0.5752240  )
        51           Au  tau(  51) = (   0.3333300   0.6666700   0.5752240  )
        52           Au  tau(  52) = (   0.6666700   0.0000000   0.5752240  )
        53           Au  tau(  53) = (   0.6666700   0.3333300   0.5752240  )
        54           Au  tau(  54) = (   0.6666700   0.6666700   0.5752240  )

     number of k points=     8 (tetrahedron method)
                       cart. coord. in units 2pi/alat
        k(    1) = (   0.0000000   0.0000000   0.0000000), wk =   0.1250000
        k(    2) = (   0.0000000   0.0000000  -0.5734114), wk =   0.1250000
        k(    3) = (   0.0000000  -0.5000000   0.0000000), wk =   0.1250000
        k(    4) = (   0.0000000  -0.5000000  -0.5734114), wk =   0.1250000
        k(    5) = (  -0.5000000  -0.5000000   0.0000000), wk =   0.1250000
        k(    6) = (  -0.5000000  -0.5000000  -0.5734114), wk =   0.1250000
        k(    7) = (  -0.5000000   0.0000000   0.0000000), wk =   0.1250000
        k(    8) = (  -0.5000000   0.0000000   0.5734114), wk =   0.1250000

     Check: negative/imaginary core charge=   -0.000006    0.000000

     Initial potential from superposition of free atoms

     starting charge  665.98709, renormalised to  666.00000
     Starting wfc are  504 randomized atomic wfcs
     Checking if some PAW data can be deallocated...

     Self-consistent Calculation

     iteration #  1     ecut=    45.00 Ry     beta= 0.10
     Davidson diagonalization with overlap
     ethr =  1.00E-02,  avg # of iterations =  3.1

     total energy              =  -33047.18645792 Ry
     Harris-Foulkes estimate   =  -33044.03888272 Ry
     estimated scf accuracy    <      27.05193026 Ry

     total magnetization       =     0.00 Bohr mag/cell
     absolute magnetization    =    92.11 Bohr mag/cell

[...]

     total energy              =  -33062.59288342 Ry
     Harris-Foulkes estimate   =  -33062.59287795 Ry
     estimated scf accuracy    <       0.00000131 Ry

[...]

     iteration # 21     ecut=    45.00 Ry     beta= 0.10
     Davidson diagonalization with overlap
     ethr =  1.96E-10,  avg # of iterations =  3.0

     Magnetic moment per site:
     atom:    1    charge:   13.5807    magn:    3.9654    constr:    0.0000
     atom:    2    charge:   13.5734    magn:   -4.0409    constr:    0.0000
     atom:    3    charge:   13.5668    magn:   -4.0762    constr:    0.0000
     atom:    4    charge:   13.5748    magn:    3.9863    constr:    0.0000
     atom:    5    charge:   13.5742    magn:    4.0268    constr:    0.0000
     atom:    6    charge:   13.5807    magn:    3.9652    constr:    0.0000
     atom:    7    charge:   13.5742    magn:    4.0268    constr:    0.0000
     atom:    8    charge:   13.5860    magn:   -3.9344    constr:    0.0000
     atom:    9    charge:   13.5733    magn:   -4.0409    constr:    0.0000
     atom:   10    charge:   13.5743    magn:   -4.0268    constr:    0.0000
     atom:   11    charge:   13.5733    magn:    4.0409    constr:    0.0000
     atom:   12    charge:   13.5861    magn:    3.9344    constr:    0.0000
     atom:   13    charge:   13.5748    magn:   -3.9863    constr:    0.0000
     atom:   14    charge:   13.5805    magn:   -3.9653    constr:    0.0000
     atom:   15    charge:   13.5742    magn:   -4.0268    constr:    0.0000
     atom:   16    charge:   13.5807    magn:   -3.9653    constr:    0.0000
     atom:   17    charge:   13.5668    magn:    4.0762    constr:    0.0000
     atom:   18    charge:   13.5734    magn:    4.0409    constr:    0.0000
     atom:   19    charge:    9.1199    magn:    0.0142    constr:    0.0000
     atom:   20    charge:    9.1210    magn:    0.0122    constr:    0.0000
     atom:   21    charge:    9.1195    magn:    0.0383    constr:    0.0000
     atom:   22    charge:    9.1209    magn:    0.0151    constr:    0.0000
     atom:   23    charge:    9.1194    magn:   -0.0064    constr:    0.0000
     atom:   24    charge:    9.1198    magn:    0.0141    constr:    0.0000
     atom:   25    charge:    9.1194    magn:   -0.0065    constr:    0.0000
     atom:   26    charge:    9.1221    magn:   -0.0491    constr:    0.0000
     atom:   27    charge:    9.1211    magn:    0.0122    constr:    0.0000
     atom:   28    charge:    9.1199    magn:    0.0142    constr:    0.0000
     atom:   29    charge:    9.1210    magn:    0.0122    constr:    0.0000
     atom:   30    charge:    9.1195    magn:    0.0383    constr:    0.0000
     atom:   31    charge:    9.1209    magn:    0.0151    constr:    0.0000
     atom:   32    charge:    9.1194    magn:   -0.0064    constr:    0.0000
     atom:   33    charge:    9.1198    magn:    0.0141    constr:    0.0000
     atom:   34    charge:    9.1194    magn:   -0.0065    constr:    0.0000
     atom:   35    charge:    9.1221    magn:   -0.0491    constr:    0.0000
     atom:   36    charge:    9.1211    magn:    0.0122    constr:    0.0000
     atom:   37    charge:    9.1196    magn:    0.0064    constr:    0.0000
     atom:   38    charge:    9.1211    magn:   -0.0122    constr:    0.0000
     atom:   39    charge:    9.1222    magn:    0.0491    constr:    0.0000
     atom:   40    charge:    9.1210    magn:   -0.0151    constr:    0.0000
     atom:   41    charge:    9.1198    magn:   -0.0142    constr:    0.0000
     atom:   42    charge:    9.1194    magn:    0.0065    constr:    0.0000
     atom:   43    charge:    9.1200    magn:   -0.0141    constr:    0.0000
     atom:   44    charge:    9.1194    magn:   -0.0383    constr:    0.0000
     atom:   45    charge:    9.1210    magn:   -0.0122    constr:    0.0000
     atom:   46    charge:    9.1196    magn:    0.0064    constr:    0.0000
     atom:   47    charge:    9.1211    magn:   -0.0122    constr:    0.0000
     atom:   48    charge:    9.1222    magn:    0.0491    constr:    0.0000
     atom:   49    charge:    9.1210    magn:   -0.0151    constr:    0.0000
     atom:   50    charge:    9.1198    magn:   -0.0142    constr:    0.0000
     atom:   51    charge:    9.1194    magn:    0.0065    constr:    0.0000
     atom:   52    charge:    9.1200    magn:   -0.0141    constr:    0.0000
     atom:   53    charge:    9.1194    magn:   -0.0383    constr:    0.0000
     atom:   54    charge:    9.1210    magn:   -0.0122    constr:    0.0000

     End of self-consistent calculation

 ------ SPIN UP ------------

          k = 0.0000 0.0000 0.0000 ( 31747 PWs)   bands (ev):

   -66.7922 -66.7102 -66.7102 -66.7072 -66.7072 -66.6942 -66.6278 -66.6278
   -66.5392 -62.4055 -62.3935 -62.3781 -62.3781 -62.3574 -62.3573 -62.3564
   -62.3564 -62.2990 -35.5514 -35.5272 -35.5262 -35.4738 -35.4737 -35.4696
   -35.4695 -35.4538 -35.4537 -35.4513 -35.4505 -35.4504 -35.4485 -35.4484
   -35.4301 -35.4294 -35.4174 -35.4173 -35.3808 -35.3808 -35.3769 -35.3769
   -35.3552 -35.3551 -35.3088 -35.2810 -35.2643 -31.2394 -31.2289 -31.2287
   -31.2275 -31.2261 -31.2244 -31.2204 -31.2054 -31.2035 -31.2034 -31.1951
   -31.1951 -31.1904 -31.1903 -31.1876 -31.1875 -31.1825 -31.1825 -31.1820
   -31.1816 -31.1750 -31.1749 -31.1573 -31.1572 -31.1541 -31.1203 -31.1008
     5.6144   7.1381   7.1650   7.1921   7.2155   7.3631   7.8496   7.8923
     7.9012   7.9518   8.0804   8.0925   8.1368   8.1825   8.1854   8.2446
     8.2448   8.3068   8.3089   8.5093   8.5554   8.5615   8.5662   8.5926
     8.6111   8.8487   8.8550   8.8628   8.8722   8.8850   8.8888   8.8972
     8.8975   8.9112   8.9126   8.9175   8.9416   8.9628   8.9774   8.9793
     8.9794   9.0818   9.1185   9.1219   9.1230   9.1368   9.1499   9.1570
     9.1892   9.1992   9.2118   9.2643   9.2873   9.2933   9.3123   9.3467
     9.3521   9.3604   9.3687   9.3689   9.3817   9.3821   9.3882   9.4233
     9.4388   9.4499   9.4506   9.4555   9.4613   9.4678   9.4903   9.5767
     9.5771   9.5836   9.5862   9.5896   9.6034   9.6646   9.6693   9.6705
     9.6750   9.6760   9.6995   9.7324   9.7636   9.7742   9.8060   9.8480
     9.8503   9.8995   9.9029   9.9411   9.9530   9.9531  10.0201  10.0392
    10.0950  10.1124  10.1397  10.1560  10.2872  10.2902  10.2934  10.2940
    10.2961  10.2990  10.3080  10.3091  10.3142  10.3242  10.3370  10.3380
    10.3412  10.3500  10.3523  10.3574  10.3623  10.3775  10.3802  10.3816
    10.4017  10.5168  10.5195  10.5756  10.6074  10.6201  10.6243  10.6612
    10.6775  10.7767  10.7843  10.7865  10.7987  10.8232  10.8325  10.8396
    10.8447  10.8512  10.8535  10.8677  10.8739  10.8811  10.8842  10.8853
    10.8984  10.9232  11.0096  11.0163  11.0919  11.0957  11.2041  11.2178
    11.2222  11.2230  11.2290  11.2561  11.2787  11.3127  11.3330  11.3670
    11.3729  11.3788  11.3815  11.3946  11.3967  11.3972  11.4030  11.4105
    11.4213  11.4435  11.5493  11.5892  11.5897  11.5908  11.5969  11.6306
    11.6878  11.6911  11.7220  11.7287  11.7321  11.7425  11.7524  11.7546
    11.8304  11.8443  11.8577  11.8685  11.8765  11.9155  11.9213  11.9462
    11.9539  12.0576  12.0985  12.0991  12.1006  12.1025  12.1034  12.1381
    12.1427  12.1468  12.1468  12.1492  12.1626  12.1692  12.1895  12.2164
    12.2635  12.2639  12.2770  12.3211  12.3252  12.3404  12.3817  12.3944
    12.4318  12.4329  12.4360  12.4544  12.5027  12.5034  12.5054  12.5083
    12.5147  12.5405  12.5556  12.5629  12.5722  12.5958  12.6246  12.6314
    12.7080  12.7227  12.7261  12.7705  12.8213  12.9134  13.0115  13.1105
    13.1351  13.1513  13.1905  13.2056  13.3339  13.6674  13.7555  13.8501
    13.9353  14.0415  14.0740  14.2005  14.2921  14.3264  14.3609  14.6301
    14.7758  14.8152  14.8439  14.8861  15.0808  15.1243  15.1639  15.2667
    15.2772  15.2877  15.2942  15.3907  15.3934  15.4311  15.5451  15.6487
    15.6527  15.6583  15.7030  15.7999  15.8503  15.8717  15.8910  15.9858
    16.0058  16.0489  16.0760  16.0988  16.1179  16.1679  16.1912  16.2163
    16.2495  16.2582  16.2672  16.2795  16.3215  16.3408  16.3784  16.3999
    16.4568  16.4789  16.5715  16.5968  16.6441  16.6457  16.7509  16.7992
    17.0268  17.0291  17.1584  17.1791  17.2098  17.2170  17.2328  17.2903
    17.4346  17.5717  17.8657  17.9002  17.9206  17.9385  17.9633  18.1891
    18.2917  18.2971  18.4371  18.9340  18.9658  18.9915  19.1866  19.2570

[...]

          k =-0.5000-0.5000 0.0000 ( 31612 PWs)   bands (ev):

[...]

 ------ SPIN DOWN ----------

[...]

          k = 0.0000-0.5000-0.5734 ( 31696 PWs)   bands (ev):

[...]

          k =-0.5000 0.0000 0.5734 ( 31696 PWs)   bands (ev):

   -66.7922 -66.7102 -66.7101 -66.7073 -66.7072 -66.6942 -66.6278 -66.6277
   -66.5393 -62.4054 -62.3936 -62.3782 -62.3781 -62.3574 -62.3574 -62.3564
   -62.3563 -62.2990 -35.5515 -35.5272 -35.5262 -35.4738 -35.4737 -35.4696
   -35.4695 -35.4538 -35.4537 -35.4513 -35.4505 -35.4504 -35.4485 -35.4484
   -35.4301 -35.4295 -35.4174 -35.4173 -35.3808 -35.3807 -35.3769 -35.3768
   -35.3552 -35.3551 -35.3089 -35.2811 -35.2644 -31.2394 -31.2291 -31.2287
   -31.2276 -31.2261 -31.2243 -31.2206 -31.2054 -31.2035 -31.2032 -31.1952
   -31.1948 -31.1903 -31.1902 -31.1877 -31.1875 -31.1828 -31.1826 -31.1819
   -31.1816 -31.1749 -31.1748 -31.1574 -31.1573 -31.1541 -31.1203 -31.1008
     6.5365   6.5536   6.6119   6.6293   7.8344   7.8519   7.8596   7.8789
     7.9068   7.9122   7.9276   7.9411   8.2704   8.2738   8.2998   8.3002
     8.5141   8.5156   8.5337   8.5379   8.6653   8.6672   8.6725   8.6756
     8.6892   8.6920   8.7011   8.7106   8.7367   8.7387   8.7395   8.7490
     8.7545   8.7710   8.7843   8.8072   8.9576   8.9785   9.0231   9.0369
     9.0397   9.0440   9.0479   9.0568   9.1945   9.2045   9.2092   9.2138
     9.2158   9.2167   9.2322   9.2329   9.2368   9.2455   9.2474   9.2526
     9.2536   9.2738   9.2847   9.2931   9.3114   9.3225   9.3845   9.3917
     9.4212   9.4267   9.4472   9.4584   9.4629   9.4639   9.4680   9.4834
     9.4975   9.5114   9.5173   9.5254   9.5278   9.5346   9.5467   9.5516
     9.5654   9.5861   9.7531   9.7550   9.7995   9.8000   9.8031   9.8111
     9.8204   9.8364   9.8446   9.8496   9.8602   9.8629   9.8687   9.8793
     9.9486   9.9584  10.0034  10.0124  10.0229  10.0284  10.0542  10.0621
    10.3639  10.3681  10.3875  10.3949  10.4049  10.4203  10.4215  10.4421
    10.4565  10.4651  10.4669  10.4749  10.4801  10.4871  10.4993  10.5066
    10.5106  10.5521  10.5688  10.5700  10.5897  10.5909  10.6318  10.6324
    10.6441  10.6531  10.6724  10.6782  10.6804  10.6978  10.6999  10.7521
    10.7595  10.7796  10.8588  10.8628  10.9677  10.9712  11.0334  11.0773
    11.1100  11.1209  11.1293  11.1570  11.1836  11.1907  11.1924  11.1990
    11.2097  11.2104  11.2670  11.3304  11.3421  11.3512  11.3739  11.3777
    11.3813  11.3817  11.4134  11.4408  11.4529  11.4778  11.4820  11.4969
    11.5242  11.5555  11.5652  11.5680  11.5842  11.6020  11.6124  11.6232
    11.6379  11.6402  11.7284  11.7371  11.7747  11.7755  11.7938  11.8057
    11.8481  11.9186  11.9286  11.9679  11.9717  11.9722  12.0080  12.0109
    12.0270  12.0288  12.0336  12.0361  12.0403  12.0471  12.0919  12.1478
    12.1931  12.2014  12.2260  12.2265  12.2386  12.2540  12.3032  12.3343
    12.3549  12.3782  12.3794  12.4017  12.4295  12.4394  12.4508  12.4614
    12.4645  12.4982  12.4986  12.5138  12.5512  12.5516  12.5548  12.6166
    12.6216  12.6388  12.6432  12.6481  12.6515  12.6983  12.7183  12.7382
    12.7706  12.8129  12.8969  12.9114  12.9606  12.9925  13.0066  13.0892
    13.1585  13.2314  13.3394  13.4485  13.5479  13.6289  13.8045  13.9076
    13.9450  13.9676  14.0303  14.0543  14.0683  14.3165  14.3618  14.4752
    14.4877  14.5216  14.5370  14.5534  14.5569  14.6969  14.7148  14.8817
    15.0328  15.2717  15.3501  15.3771  15.3832  15.3976  15.5223  15.5780
    15.5900  15.6707  15.6807  15.7124  15.7705  15.8930  15.9027  16.0231
    16.0318  16.0451  16.0792  16.1409  16.1486  16.1727  16.2093  16.2262
    16.2359  16.2781  16.2790  16.2994  16.3361  16.3784  16.4341  16.4385
    16.4524  16.5386  16.5812  16.5849  16.6107  16.6455  16.6563  16.6614
    16.7769  16.8410  16.8465  16.9058  16.9175  16.9793  16.9947  17.0219
    17.0979  17.1225  17.1816  17.2302  18.6254  18.6579  18.7107  18.7148
    18.7424  18.7558  18.8191  18.8339  18.8851  18.8969  18.9500  18.9728

     the Fermi energy is    14.8139 ev

!    total energy              =  -33062.59290231 Ry
     Harris-Foulkes estimate   =  -33062.59288267 Ry
     estimated scf accuracy    <       0.00000048 Ry

     total all-electron energy =  -1410574.683277 Ry

     The total energy is the sum of the following terms:

     one-electron contribution =   -1645.66520934 Ry
     hartree contribution      =    1489.86701515 Ry
     xc contribution           =   -1658.72679696 Ry
     ewald contribution        =   -4919.25534656 Ry
     one-center paw contrib.   =  -26328.81256460 Ry

     total magnetization       =     0.00 Bohr mag/cell
     absolute magnetization    =    78.61 Bohr mag/cell

     convergence has been achieved in  21 iterations

     Writing output data file mnau2.save

     General routines

     Parallel routines

   This run was terminated on:   5: 3: 3   8Mar2019

   JOB DONE.