     Program PWSCF v.6.2 (svn rev. 14038) starts on  5Mar2019 at 10: 9:46

     R & G space division:  proc/nbgrp/npool/nimage =      16
     Waiting for input...
     Reading input from standard input

     Current dimensions of program PWSCF are:
     Max number of different atomic species (ntypx) = 10
     Max number of k-points (npk) =  40000
     Max angular momentum in pseudopotentials (lmaxx) =  3
               file Mn.pbe-spn-kjpaw_psl.0.3.1.UPF: wavefunction(s)  3P 3D renormalized
               file Mn.pbe-spn-kjpaw_psl.0.3.1.UPF: wavefunction(s)  3P 3D renormalized
               file Au.pbe-dn-kjpaw_psl.0.1.UPF: wavefunction(s)  6S 6P 5D renormalized

     Subspace diagonalization in iterative solution of the eigenvalue problem:
     a serial algorithm will be used

     bravais-lattice index     =            0
     lattice parameter (alat)  =      19.2459  a.u.
     unit-cell volume          =    6216.1497 (a.u.)^3
     number of atoms/cell      =           54
     number of atomic types    =            3
     number of electrons       =       666.00
     number of Kohn-Sham states=          400
     kinetic-energy cutoff     =      45.0000  Ry
     charge density cutoff     =     400.0000  Ry
     convergence threshold     =      1.0E-06
     mixing beta               =       0.1000
     number of iterations used =            8  plain     mixing
     Exchange-correlation      = SLA PW PBX PBC ( 1  4  3  4 0 0)

     celldm(1)=  19.245946  celldm(2)=   0.000000  celldm(3)=   0.000000
     celldm(4)=   0.000000  celldm(5)=   0.000000  celldm(6)=   0.000000

     crystal axes: (cart. coord. in units of alat)
               a(1) = (   1.000000   0.000000   0.000000 )
               a(2) = (   0.000000   1.000000   0.000000 )
               a(3) = (   0.000000   0.000000   0.871974 )

     reciprocal axes: (cart. coord. in units 2 pi/alat)
               b(1) = (  1.000000  0.000000  0.000000 )
               b(2) = (  0.000000  1.000000  0.000000 )
               b(3) = (  0.000000  0.000000  1.146823 )

     PseudoPot. # 1 for Mn read from file:
     ./pseudo/Mn.pbe-spn-kjpaw_psl.0.3.1.UPF
     MD5 check sum: 7eef95dd2aae66803482eea66ebeebf1
     Pseudo is Projector augmented-wave + core cor, Zval = 15.0
     Generated using "atomic" code by A. Dal Corso v.5.0.99 svn rev. 10869
     Shape of augmentation charge: PSQ
     Using radial grid of 1187 points,  6 beta functions with:
                l(1) =   0
                l(2) =   0
                l(3) =   1
                l(4) =   1
                l(5) =   2
                l(6) =   2
     Q(r) pseudized with 0 coefficients

     PseudoPot. # 2 for Mn read from file:
     ./pseudo/Mn.pbe-spn-kjpaw_psl.0.3.1.UPF
     MD5 check sum: 7eef95dd2aae66803482eea66ebeebf1
     Pseudo is Projector augmented-wave + core cor, Zval = 15.0
     Generated using "atomic" code by A. Dal Corso v.5.0.99 svn rev. 10869
     Shape of augmentation charge: PSQ
     Using radial grid of 1187 points,  6 beta functions with:
                l(1) =   0
                l(2) =   0
                l(3) =   1
                l(4) =   1
                l(5) =   2
                l(6) =   2
     Q(r) pseudized with 0 coefficients

     PseudoPot. # 3 for Au read from file:
     ./pseudo/Au.pbe-dn-kjpaw_psl.0.1.UPF
     MD5 check sum: 5c9b92683623e7ae2ab3f8e525febab6
     Pseudo is Projector augmented-wave + core cor, Zval = 11.0
     Generated using "atomic" code by A. Dal Corso v.5.0.2 svn rev. 9415
     Shape of augmentation charge: PSQ
     Using radial grid of 1279 points,  6 beta functions with:
                l(1) =   0
                l(2) =   0
                l(3) =   1
                l(4) =   1
                l(5) =   2
                l(6) =   2
     Q(r) pseudized with 0 coefficients

     atomic species   valence    mass     pseudopotential
        Mn1           15.00    54.93800     Mn( 1.00)
        Mn2           15.00    54.93800     Mn( 1.00)
        Au            11.00   196.96600     Au( 1.00)

     Starting magnetic structure
     atomic species   magnetization
        Mn1          0.800
        Mn2         -0.800
        Au           0.000

      2 Sym. Ops. (no inversion) found

   Cartesian axes

     site n.     atom                  positions (alat units)
         1           Mn1 tau(   1) = (   0.0000000   0.0000000   0.0000000  )
         2           Mn1 tau(   2) = (   0.0000000   0.3333300   0.0000000  )
         3           Mn1 tau(   3) = (   0.0000000   0.6666700   0.0000000  )
         4           Mn2 tau(   4) = (   0.3333300   0.0000000   0.0000000  )
         5           Mn1 tau(   5) = (   0.3333300   0.3333300   0.0000000  )
         6           Mn1 tau(   6) = (   0.3333300   0.6666700   0.0000000  )
         7           Mn2 tau(   7) = (   0.6666700   0.0000000   0.0000000  )
         8           Mn1 tau(   8) = (   0.6666700   0.3333300   0.0000000  )
         9           Mn1 tau(   9) = (   0.6666700   0.6666700   0.0000000  )
        10           Mn2 tau(  10) = (   0.1666700   0.1666700   0.4359871  )
        11           Mn2 tau(  11) = (   0.1666700   0.5000000   0.4359871  )
        12           Mn2 tau(  12) = (   0.1666700   0.8333300   0.4359871  )
        13           Mn1 tau(  13) = (   0.5000000   0.1666700   0.4359871  )
        14           Mn2 tau(  14) = (   0.5000000   0.5000000   0.4359871  )
        15           Mn2 tau(  15) = (   0.5000000   0.8333300   0.4359871  )
        16           Mn1 tau(  16) = (   0.8333300   0.1666700   0.4359871  )
        17           Mn2 tau(  17) = (   0.8333300   0.5000000   0.4359871  )
        18           Mn2 tau(  18) = (   0.8333300   0.8333300   0.4359871  )
        19           Au  tau(  19) = (   0.1666700   0.1666700   0.7327374  )
        20           Au  tau(  20) = (   0.1666700   0.5000000   0.7327374  )
        21           Au  tau(  21) = (   0.1666700   0.8333300   0.7327374  )
        22           Au  tau(  22) = (   0.5000000   0.1666700   0.7327374  )
        23           Au  tau(  23) = (   0.5000000   0.5000000   0.7327374  )
        24           Au  tau(  24) = (   0.5000000   0.8333300   0.7327374  )
        25           Au  tau(  25) = (   0.8333300   0.1666700   0.7327374  )
        26           Au  tau(  26) = (   0.8333300   0.5000000   0.7327374  )
        27           Au  tau(  27) = (   0.8333300   0.8333300   0.7327374  )
        28           Au  tau(  28) = (   0.1666700   0.1666700   0.1392369  )
        29           Au  tau(  29) = (   0.1666700   0.5000000   0.1392369  )
        30           Au  tau(  30) = (   0.1666700   0.8333300   0.1392369  )
        31           Au  tau(  31) = (   0.5000000   0.1666700   0.1392369  )
        32           Au  tau(  32) = (   0.5000000   0.5000000   0.1392369  )
        33           Au  tau(  33) = (   0.5000000   0.8333300   0.1392369  )
        34           Au  tau(  34) = (   0.8333300   0.1666700   0.1392369  )
        35           Au  tau(  35) = (   0.8333300   0.5000000   0.1392369  )
        36           Au  tau(  36) = (   0.8333300   0.8333300   0.1392369  )
        37           Au  tau(  37) = (   0.0000000   0.0000000   0.2967503  )
        38           Au  tau(  38) = (   0.0000000   0.3333300   0.2967503  )
        39           Au  tau(  39) = (   0.0000000   0.6666700   0.2967503  )
        40           Au  tau(  40) = (   0.3333300   0.0000000   0.2967503  )
        41           Au  tau(  41) = (   0.3333300   0.3333300   0.2967503  )
        42           Au  tau(  42) = (   0.3333300   0.6666700   0.2967503  )
        43           Au  tau(  43) = (   0.6666700   0.0000000   0.2967503  )
        44           Au  tau(  44) = (   0.6666700   0.3333300   0.2967503  )
        45           Au  tau(  45) = (   0.6666700   0.6666700   0.2967503  )
        46           Au  tau(  46) = (   0.0000000   0.0000000   0.5752240  )
        47           Au  tau(  47) = (   0.0000000   0.3333300   0.5752240  )
        48           Au  tau(  48) = (   0.0000000   0.6666700   0.5752240  )
        49           Au  tau(  49) = (   0.3333300   0.0000000   0.5752240  )
        50           Au  tau(  50) = (   0.3333300   0.3333300   0.5752240  )
        51           Au  tau(  51) = (   0.3333300   0.6666700   0.5752240  )
        52           Au  tau(  52) = (   0.6666700   0.0000000   0.5752240  )
        53           Au  tau(  53) = (   0.6666700   0.3333300   0.5752240  )
        54           Au  tau(  54) = (   0.6666700   0.6666700   0.5752240  )

     number of k points=     8 (tetrahedron method)
                       cart. coord. in units 2pi/alat
        k(    1) = (   0.0000000   0.0000000   0.0000000), wk =   0.1250000
        k(    2) = (   0.0000000   0.0000000  -0.5734114), wk =   0.1250000
        k(    3) = (   0.0000000  -0.5000000   0.0000000), wk =   0.1250000
        k(    4) = (   0.0000000  -0.5000000  -0.5734114), wk =   0.1250000
        k(    5) = (  -0.5000000  -0.5000000   0.0000000), wk =   0.1250000
        k(    6) = (  -0.5000000  -0.5000000  -0.5734114), wk =   0.1250000
        k(    7) = (  -0.5000000   0.0000000   0.0000000), wk =   0.1250000
        k(    8) = (  -0.5000000   0.0000000   0.5734114), wk =   0.1250000

     Check: negative/imaginary core charge=   -0.000006    0.000000

     Initial potential from superposition of free atoms

     starting charge  665.98709, renormalised to  666.00000
     Starting wfc are  504 randomized atomic wfcs
     Checking if some PAW data can be deallocated...

     Self-consistent Calculation

     iteration #  1     ecut=    45.00 Ry     beta= 0.10
     Davidson diagonalization with overlap
     ethr =  1.00E-02,  avg # of iterations =  3.1

     total energy              =  -33047.17003359 Ry
     Harris-Foulkes estimate   =  -33044.00806126 Ry
     estimated scf accuracy    <      27.03260791 Ry

     total magnetization       =    -0.00 Bohr mag/cell
     absolute magnetization    =    92.14 Bohr mag/cell

[...]

     total energy              =  -33062.61059454 Ry
     Harris-Foulkes estimate   =  -33062.61059197 Ry
     estimated scf accuracy    <       0.00000206 Ry

[...]

     iteration # 25     ecut=    45.00 Ry     beta= 0.10
     Davidson diagonalization with overlap
     ethr =  3.10E-10,  avg # of iterations =  2.0

     Magnetic moment per site:
     atom:    1    charge:   13.5803    magn:    3.9786    constr:    0.0000
     atom:    2    charge:   13.5786    magn:    3.9713    constr:    0.0000
     atom:    3    charge:   13.5707    magn:    4.0458    constr:    0.0000
     atom:    4    charge:   13.5763    magn:   -4.0267    constr:    0.0000
     atom:    5    charge:   13.5797    magn:    3.9770    constr:    0.0000
     atom:    6    charge:   13.5691    magn:    4.0604    constr:    0.0000
     atom:    7    charge:   13.5728    magn:   -4.0533    constr:    0.0000
     atom:    8    charge:   13.5810    magn:    3.9644    constr:    0.0000
     atom:    9    charge:   13.5749    magn:    4.0125    constr:    0.0000
     atom:   10    charge:   13.5803    magn:   -3.9786    constr:    0.0000
     atom:   11    charge:   13.5707    magn:   -4.0458    constr:    0.0000
     atom:   12    charge:   13.5786    magn:   -3.9713    constr:    0.0000
     atom:   13    charge:   13.5727    magn:    4.0533    constr:    0.0000
     atom:   14    charge:   13.5748    magn:   -4.0125    constr:    0.0000
     atom:   15    charge:   13.5810    magn:   -3.9645    constr:    0.0000
     atom:   16    charge:   13.5764    magn:    4.0267    constr:    0.0000
     atom:   17    charge:   13.5691    magn:   -4.0604    constr:    0.0000
     atom:   18    charge:   13.5799    magn:   -3.9770    constr:    0.0000
     atom:   19    charge:    9.1197    magn:    0.0166    constr:    0.0000
     atom:   20    charge:    9.1206    magn:    0.0460    constr:    0.0000
     atom:   21    charge:    9.1214    magn:    0.0185    constr:    0.0000
     atom:   22    charge:    9.1213    magn:    0.0091    constr:    0.0000
     atom:   23    charge:    9.1208    magn:    0.0526    constr:    0.0000
     atom:   24    charge:    9.1218    magn:   -0.0080    constr:    0.0000
     atom:   25    charge:    9.1201    magn:    0.0409    constr:    0.0000
     atom:   26    charge:    9.1203    magn:    0.0472    constr:    0.0000
     atom:   27    charge:    9.1217    magn:    0.0180    constr:    0.0000
     atom:   28    charge:    9.1197    magn:    0.0166    constr:    0.0000
     atom:   29    charge:    9.1206    magn:    0.0460    constr:    0.0000
     atom:   30    charge:    9.1214    magn:    0.0185    constr:    0.0000
     atom:   31    charge:    9.1213    magn:    0.0091    constr:    0.0000
     atom:   32    charge:    9.1208    magn:    0.0526    constr:    0.0000
     atom:   33    charge:    9.1218    magn:   -0.0080    constr:    0.0000
     atom:   34    charge:    9.1201    magn:    0.0409    constr:    0.0000
     atom:   35    charge:    9.1203    magn:    0.0472    constr:    0.0000
     atom:   36    charge:    9.1217    magn:    0.0180    constr:    0.0000
     atom:   37    charge:    9.1199    magn:   -0.0166    constr:    0.0000
     atom:   38    charge:    9.1214    magn:   -0.0184    constr:    0.0000
     atom:   39    charge:    9.1207    magn:   -0.0460    constr:    0.0000
     atom:   40    charge:    9.1202    magn:   -0.0409    constr:    0.0000
     atom:   41    charge:    9.1216    magn:   -0.0180    constr:    0.0000
     atom:   42    charge:    9.1203    magn:   -0.0472    constr:    0.0000
     atom:   43    charge:    9.1214    magn:   -0.0090    constr:    0.0000
     atom:   44    charge:    9.1218    magn:    0.0081    constr:    0.0000
     atom:   45    charge:    9.1208    magn:   -0.0526    constr:    0.0000
     atom:   46    charge:    9.1199    magn:   -0.0166    constr:    0.0000
     atom:   47    charge:    9.1214    magn:   -0.0184    constr:    0.0000
     atom:   48    charge:    9.1207    magn:   -0.0460    constr:    0.0000
     atom:   49    charge:    9.1202    magn:   -0.0409    constr:    0.0000
     atom:   50    charge:    9.1216    magn:   -0.0180    constr:    0.0000
     atom:   51    charge:    9.1203    magn:   -0.0472    constr:    0.0000
     atom:   52    charge:    9.1214    magn:   -0.0090    constr:    0.0000
     atom:   53    charge:    9.1218    magn:    0.0081    constr:    0.0000
     atom:   54    charge:    9.1208    magn:   -0.0526    constr:    0.0000

     End of self-consistent calculation

 ------ SPIN UP ------------

          k = 0.0000 0.0000 0.0000 ( 31747 PWs)   bands (ev):

   -66.7876 -66.7540 -66.7087 -66.7067 -66.6635 -66.6466 -66.6387 -66.6340
   -66.6168 -62.4139 -62.3920 -62.3852 -62.3594 -62.3506 -62.3495 -62.3477
   -62.3414 -62.3337 -35.5417 -35.5301 -35.5176 -35.5140 -35.4958 -35.4790
   -35.4633 -35.4605 -35.4582 -35.4562 -35.4390 -35.4356 -35.4329 -35.4097
   -35.4048 -35.4014 -35.3961 -35.3913 -35.3888 -35.3828 -35.3799 -35.3766
   -35.3758 -35.3709 -35.3548 -35.3534 -35.3335 -31.2504 -31.2476 -31.2311
   -31.2203 -31.2187 -31.2181 -31.2134 -31.2079 -31.2016 -31.1998 -31.1960
   -31.1960 -31.1857 -31.1818 -31.1798 -31.1755 -31.1744 -31.1728 -31.1696
   -31.1686 -31.1678 -31.1653 -31.1574 -31.1533 -31.1508 -31.1498 -31.1460
     5.6143   7.1506   7.1598   7.1942   7.2059   7.3658   7.8593   7.8884
     7.9118   7.9428   8.0843   8.1088   8.1348   8.1530   8.1909   8.2441
     8.2618   8.2923   8.3104   8.5238   8.5494   8.5641   8.5693   8.5945
     8.6035   8.8571   8.8676   8.8687   8.8789   8.8853   8.8933   8.9017
     8.9031   8.9059   8.9140   8.9169   8.9309   8.9409   8.9623   8.9637
     8.9867   9.0852   9.1195   9.1267   9.1286   9.1313   9.1595   9.1603
     9.1884   9.2011   9.2120   9.2691   9.2781   9.2936   9.3061   9.3526
     9.3556   9.3620   9.3720   9.3764   9.3822   9.3852   9.4126   9.4260
     9.4461   9.4482   9.4557   9.4664   9.4673   9.4727   9.4956   9.5814
     9.5839   9.5840   9.5887   9.5913   9.6138   9.6583   9.6685   9.6726
     9.6737   9.6766   9.6810   9.7404   9.7584   9.7732   9.7931   9.8494
     9.8506   9.9122   9.9208   9.9506   9.9551   9.9637  10.0164  10.0375
    10.0967  10.1286  10.1364  10.1583  10.2923  10.2931  10.2954  10.2997
    10.3009  10.3063  10.3064  10.3117  10.3117  10.3250  10.3342  10.3455
    10.3497  10.3512  10.3546  10.3565  10.3616  10.3657  10.3811  10.3854
    10.4009  10.5135  10.5167  10.5533  10.5706  10.6181  10.6220  10.6426
    10.6916  10.7846  10.7870  10.8140  10.8199  10.8267  10.8321  10.8493
    10.8540  10.8597  10.8630  10.8747  10.8781  10.8824  10.8989  10.9139
    10.9172  10.9180  11.0143  11.0352  11.0757  11.0979  11.2208  11.2227
    11.2265  11.2290  11.2571  11.2752  11.3070  11.3283  11.3339  11.3460
    11.3548  11.3670  11.3880  11.3916  11.4015  11.4091  11.4153  11.4218
    11.4399  11.4651  11.5323  11.5549  11.5913  11.5940  11.5968  11.5980
    11.5987  11.6680  11.7050  11.7271  11.7314  11.7318  11.7443  11.7494
    11.8303  11.8332  11.8365  11.8720  11.8731  11.9097  11.9273  11.9455
    11.9495  12.0144  12.0810  12.1013  12.1022  12.1035  12.1062  12.1444
    12.1459  12.1480  12.1494  12.1618  12.1741  12.1814  12.1915  12.2320
    12.2451  12.2464  12.3229  12.3359  12.3423  12.3619  12.3683  12.4261
    12.4290  12.4346  12.4430  12.4735  12.4883  12.5003  12.5035  12.5144
    12.5168  12.5417  12.5419  12.5552  12.5626  12.5768  12.5872  12.6515
    12.7003  12.7082  12.7439  12.7542  12.9973  13.0300  13.0915  13.1062
    13.1301  13.1311  13.1782  13.1886  13.3760  13.4664  13.6750  13.8220
    13.8389  13.9613  14.0070  14.2395  14.2436  14.3452  14.3519  14.5018
    14.7791  14.8898  14.9449  15.0461  15.0522  15.1534  15.1835  15.2345
    15.2953  15.3343  15.3729  15.3932  15.4472  15.4663  15.5182  15.5773
    15.6578  15.6583  15.7346  15.7559  15.7844  15.7980  15.9151  15.9223
    16.0063  16.0822  16.1079  16.1099  16.1146  16.1454  16.1790  16.2118
    16.2215  16.2444  16.2786  16.3404  16.3622  16.3667  16.3780  16.4385
    16.4471  16.4671  16.4737  16.5808  16.6416  16.6510  16.7560  16.8495
    16.9769  17.0302  17.1653  17.1907  17.2029  17.2473  17.2637  17.3294
    17.5020  17.5523  17.8673  17.9114  17.9336  17.9475  17.9714  18.0366
    18.1153  18.2167  18.3698  18.9818  19.0338  19.0341  19.1562  19.2290

[...]

          k =-0.5000-0.5000 0.0000 ( 31612 PWs)   bands (ev):

[...]

 ------ SPIN DOWN ----------

[...]

          k = 0.0000-0.5000-0.5734 ( 31696 PWs)   bands (ev):

[...]

          k =-0.5000 0.0000 0.5734 ( 31696 PWs)   bands (ev):

   -66.7877 -66.7541 -66.7087 -66.7068 -66.6635 -66.6465 -66.6387 -66.6340
   -66.6168 -62.4138 -62.3919 -62.3852 -62.3595 -62.3506 -62.3495 -62.3477
   -62.3414 -62.3337 -35.5418 -35.5302 -35.5178 -35.5140 -35.4957 -35.4790
   -35.4634 -35.4606 -35.4582 -35.4563 -35.4390 -35.4357 -35.4330 -35.4097
   -35.4047 -35.4014 -35.3961 -35.3913 -35.3887 -35.3828 -35.3803 -35.3766
   -35.3743 -35.3717 -35.3548 -35.3534 -35.3335 -31.2506 -31.2475 -31.2303
   -31.2203 -31.2187 -31.2186 -31.2134 -31.2080 -31.2020 -31.1998 -31.1960
   -31.1958 -31.1860 -31.1817 -31.1788 -31.1755 -31.1744 -31.1728 -31.1696
   -31.1692 -31.1677 -31.1653 -31.1574 -31.1533 -31.1508 -31.1498 -31.1460
     6.5231   6.5536   6.6067   6.6519   7.8323   7.8399   7.8455   7.8791
     7.8988   7.9315   7.9450   7.9495   8.2642   8.2822   8.2928   8.3049
     8.5040   8.5251   8.5356   8.5412   8.6376   8.6658   8.6737   8.6867
     8.6919   8.6961   8.7127   8.7166   8.7210   8.7239   8.7444   8.7583
     8.7588   8.7638   8.7838   8.8430   8.9457   8.9715   9.0246   9.0265
     9.0306   9.0608   9.0651   9.0807   9.1815   9.1990   9.2015   9.2118
     9.2177   9.2215   9.2235   9.2299   9.2358   9.2465   9.2552   9.2654
     9.2720   9.2811   9.2885   9.2915   9.3053   9.3623   9.3807   9.3830
     9.4067   9.4260   9.4529   9.4568   9.4638   9.4651   9.4715   9.4855
     9.4877   9.4928   9.5000   9.5019   9.5150   9.5453   9.5506   9.5740
     9.5827   9.6198   9.7520   9.7631   9.7742   9.7776   9.8046   9.8243
     9.8249   9.8388   9.8487   9.8544   9.8579   9.8611   9.8933   9.8948
     9.9595   9.9856   9.9889   9.9987  10.0302  10.0308  10.0547  10.0696
    10.3572  10.3861  10.3925  10.4060  10.4119  10.4176  10.4236  10.4303
    10.4491  10.4611  10.4729  10.4790  10.4884  10.4943  10.4986  10.5179
    10.5275  10.5635  10.5758  10.5794  10.5982  10.6104  10.6150  10.6171
    10.6409  10.6495  10.6676  10.6702  10.6782  10.6928  10.7165  10.7171
    10.7300  10.8554  10.8614  10.9049  10.9633  10.9952  11.0353  11.1086
    11.1149  11.1310  11.1346  11.1498  11.1607  11.1893  11.1978  11.2100
    11.2114  11.2145  11.2557  11.3169  11.3436  11.3523  11.3653  11.3706
    11.3785  11.3816  11.4106  11.4261  11.4399  11.4852  11.4887  11.5111
    11.5197  11.5573  11.5740  11.5788  11.5811  11.5960  11.6028  11.6205
    11.6228  11.6419  11.6430  11.7110  11.7563  11.7651  11.8162  11.8243
    11.8927  11.8978  11.9036  11.9532  11.9616  11.9622  11.9822  12.0093
    12.0220  12.0273  12.0275  12.0333  12.0367  12.0391  12.0784  12.1337
    12.1435  12.1598  12.1824  12.2215  12.2324  12.2578  12.2919  12.3370
    12.3704  12.4113  12.4167  12.4233  12.4446  12.4469  12.4744  12.4885
    12.4993  12.5126  12.5154  12.5307  12.5451  12.5621  12.6269  12.6281
    12.6310  12.6405  12.6587  12.6611  12.7309  12.7572  12.7669  12.7789
    12.8676  12.8810  12.9119  12.9768  13.0106  13.0254  13.0438  13.0630
    13.0810  13.1953  13.2596  13.3549  13.4468  13.5346  13.5654  13.7997
    13.8733  13.9810  14.0569  14.1162  14.1499  14.2426  14.2700  14.3974
    14.4216  14.4620  14.5295  14.5801  14.6945  14.7050  14.7917  15.0324
    15.0920  15.2020  15.2684  15.3117  15.3447  15.3834  15.5589  15.5874
    15.6074  15.6836  15.7819  15.7982  15.8608  15.9213  15.9392  15.9684
    16.0359  16.0725  16.0875  16.1242  16.1495  16.1742  16.2146  16.2293
    16.2425  16.2693  16.2782  16.2787  16.2911  16.3348  16.3666  16.4837
    16.4862  16.5332  16.5463  16.5948  16.6134  16.6487  16.6877  16.7445
    16.7469  16.8059  16.8319  16.8995  16.9136  16.9525  16.9589  16.9949
    17.0806  17.1206  17.2059  17.2827  18.5593  18.6772  18.7112  18.7181
    18.7459  18.7992  18.8346  18.8552  18.8646  18.9201  18.9660  18.9889

     the Fermi energy is    14.8423 ev

!    total energy              =  -33062.61060264 Ry
     Harris-Foulkes estimate   =  -33062.61059203 Ry
     estimated scf accuracy    <       0.00000069 Ry

     total all-electron energy =  -1410574.700977 Ry

     The total energy is the sum of the following terms:

     one-electron contribution =   -1645.67475638 Ry
     hartree contribution      =    1489.88510979 Ry
     xc contribution           =   -1658.75111175 Ry
     ewald contribution        =   -4919.25534656 Ry
     one-center paw contrib.   =  -26328.81449774 Ry

     total magnetization       =     0.00 Bohr mag/cell
     absolute magnetization    =    78.95 Bohr mag/cell

     convergence has been achieved in  25 iterations

     Writing output data file mnau2.save

     General routines

     Parallel routines

   This run was terminated on:  11:10: 9   5Mar2019

   JOB DONE.