     Program PWSCF v.6.2 (svn rev. 14038) starts on  5Mar2019 at 18:42:21

     R & G space division:  proc/nbgrp/npool/nimage =      16
     Waiting for input...
     Reading input from standard input

     Current dimensions of program PWSCF are:
     Max number of different atomic species (ntypx) = 10
     Max number of k-points (npk) =  40000
     Max angular momentum in pseudopotentials (lmaxx) =  3
               file Mn.pbe-spn-kjpaw_psl.0.3.1.UPF: wavefunction(s)  3P 3D renormalized
               file Mn.pbe-spn-kjpaw_psl.0.3.1.UPF: wavefunction(s)  3P 3D renormalized
               file Au.pbe-dn-kjpaw_psl.0.1.UPF: wavefunction(s)  6S 6P 5D renormalized

     Subspace diagonalization in iterative solution of the eigenvalue problem:
     a serial algorithm will be used

     bravais-lattice index     =            0
     lattice parameter (alat)  =      19.2459  a.u.
     unit-cell volume          =    6216.1497 (a.u.)^3
     number of atoms/cell      =           54
     number of atomic types    =            3
     number of electrons       =       666.00
     number of Kohn-Sham states=          400
     kinetic-energy cutoff     =      45.0000  Ry
     charge density cutoff     =     400.0000  Ry
     convergence threshold     =      1.0E-06
     mixing beta               =       0.1000
     number of iterations used =            8  plain     mixing
     Exchange-correlation      = SLA PW PBX PBC ( 1  4  3  4 0 0)

     celldm(1)=  19.245946  celldm(2)=   0.000000  celldm(3)=   0.000000
     celldm(4)=   0.000000  celldm(5)=   0.000000  celldm(6)=   0.000000

     crystal axes: (cart. coord. in units of alat)
               a(1) = (   1.000000   0.000000   0.000000 )
               a(2) = (   0.000000   1.000000   0.000000 )
               a(3) = (   0.000000   0.000000   0.871974 )

     reciprocal axes: (cart. coord. in units 2 pi/alat)
               b(1) = (  1.000000  0.000000  0.000000 )
               b(2) = (  0.000000  1.000000  0.000000 )
               b(3) = (  0.000000  0.000000  1.146823 )

     PseudoPot. # 1 for Mn read from file:
     ./pseudo/Mn.pbe-spn-kjpaw_psl.0.3.1.UPF
     MD5 check sum: 7eef95dd2aae66803482eea66ebeebf1
     Pseudo is Projector augmented-wave + core cor, Zval = 15.0
     Generated using "atomic" code by A. Dal Corso v.5.0.99 svn rev. 10869
     Shape of augmentation charge: PSQ
     Using radial grid of 1187 points,  6 beta functions with:
                l(1) =   0
                l(2) =   0
                l(3) =   1
                l(4) =   1
                l(5) =   2
                l(6) =   2
     Q(r) pseudized with 0 coefficients

     PseudoPot. # 2 for Mn read from file:
     ./pseudo/Mn.pbe-spn-kjpaw_psl.0.3.1.UPF
     MD5 check sum: 7eef95dd2aae66803482eea66ebeebf1
     Pseudo is Projector augmented-wave + core cor, Zval = 15.0
     Generated using "atomic" code by A. Dal Corso v.5.0.99 svn rev. 10869
     Shape of augmentation charge: PSQ
     Using radial grid of 1187 points,  6 beta functions with:
                l(1) =   0
                l(2) =   0
                l(3) =   1
                l(4) =   1
                l(5) =   2
                l(6) =   2
     Q(r) pseudized with 0 coefficients

     PseudoPot. # 3 for Au read from file:
     ./pseudo/Au.pbe-dn-kjpaw_psl.0.1.UPF
     MD5 check sum: 5c9b92683623e7ae2ab3f8e525febab6
     Pseudo is Projector augmented-wave + core cor, Zval = 11.0
     Generated using "atomic" code by A. Dal Corso v.5.0.2 svn rev. 9415
     Shape of augmentation charge: PSQ
     Using radial grid of 1279 points,  6 beta functions with:
                l(1) =   0
                l(2) =   0
                l(3) =   1
                l(4) =   1
                l(5) =   2
                l(6) =   2
     Q(r) pseudized with 0 coefficients

     atomic species   valence    mass     pseudopotential
        Mn1           15.00    54.93800     Mn( 1.00)
        Mn2           15.00    54.93800     Mn( 1.00)
        Au            11.00   196.96600     Au( 1.00)

     Starting magnetic structure
     atomic species   magnetization
        Mn1          0.800
        Mn2         -0.800
        Au           0.000

      2 Sym. Ops. (no inversion) found

   Cartesian axes

     site n.     atom                  positions (alat units)
         1           Mn1 tau(   1) = (   0.0000000   0.0000000   0.0000000  )
         2           Mn1 tau(   2) = (   0.0000000   0.3333300   0.0000000  )
         3           Mn1 tau(   3) = (   0.0000000   0.6666700   0.0000000  )
         4           Mn2 tau(   4) = (   0.3333300   0.0000000   0.0000000  )
         5           Mn1 tau(   5) = (   0.3333300   0.3333300   0.0000000  )
         6           Mn2 tau(   6) = (   0.3333300   0.6666700   0.0000000  )
         7           Mn2 tau(   7) = (   0.6666700   0.0000000   0.0000000  )
         8           Mn1 tau(   8) = (   0.6666700   0.3333300   0.0000000  )
         9           Mn2 tau(   9) = (   0.6666700   0.6666700   0.0000000  )
        10           Mn2 tau(  10) = (   0.1666700   0.1666700   0.4359871  )
        11           Mn2 tau(  11) = (   0.1666700   0.5000000   0.4359871  )
        12           Mn2 tau(  12) = (   0.1666700   0.8333300   0.4359871  )
        13           Mn1 tau(  13) = (   0.5000000   0.1666700   0.4359871  )
        14           Mn2 tau(  14) = (   0.5000000   0.5000000   0.4359871  )
        15           Mn1 tau(  15) = (   0.5000000   0.8333300   0.4359871  )
        16           Mn1 tau(  16) = (   0.8333300   0.1666700   0.4359871  )
        17           Mn2 tau(  17) = (   0.8333300   0.5000000   0.4359871  )
        18           Mn1 tau(  18) = (   0.8333300   0.8333300   0.4359871  )
        19           Au  tau(  19) = (   0.1666700   0.1666700   0.7327374  )
        20           Au  tau(  20) = (   0.1666700   0.5000000   0.7327374  )
        21           Au  tau(  21) = (   0.1666700   0.8333300   0.7327374  )
        22           Au  tau(  22) = (   0.5000000   0.1666700   0.7327374  )
        23           Au  tau(  23) = (   0.5000000   0.5000000   0.7327374  )
        24           Au  tau(  24) = (   0.5000000   0.8333300   0.7327374  )
        25           Au  tau(  25) = (   0.8333300   0.1666700   0.7327374  )
        26           Au  tau(  26) = (   0.8333300   0.5000000   0.7327374  )
        27           Au  tau(  27) = (   0.8333300   0.8333300   0.7327374  )
        28           Au  tau(  28) = (   0.1666700   0.1666700   0.1392369  )
        29           Au  tau(  29) = (   0.1666700   0.5000000   0.1392369  )
        30           Au  tau(  30) = (   0.1666700   0.8333300   0.1392369  )
        31           Au  tau(  31) = (   0.5000000   0.1666700   0.1392369  )
        32           Au  tau(  32) = (   0.5000000   0.5000000   0.1392369  )
        33           Au  tau(  33) = (   0.5000000   0.8333300   0.1392369  )
        34           Au  tau(  34) = (   0.8333300   0.1666700   0.1392369  )
        35           Au  tau(  35) = (   0.8333300   0.5000000   0.1392369  )
        36           Au  tau(  36) = (   0.8333300   0.8333300   0.1392369  )
        37           Au  tau(  37) = (   0.0000000   0.0000000   0.2967503  )
        38           Au  tau(  38) = (   0.0000000   0.3333300   0.2967503  )
        39           Au  tau(  39) = (   0.0000000   0.6666700   0.2967503  )
        40           Au  tau(  40) = (   0.3333300   0.0000000   0.2967503  )
        41           Au  tau(  41) = (   0.3333300   0.3333300   0.2967503  )
        42           Au  tau(  42) = (   0.3333300   0.6666700   0.2967503  )
        43           Au  tau(  43) = (   0.6666700   0.0000000   0.2967503  )
        44           Au  tau(  44) = (   0.6666700   0.3333300   0.2967503  )
        45           Au  tau(  45) = (   0.6666700   0.6666700   0.2967503  )
        46           Au  tau(  46) = (   0.0000000   0.0000000   0.5752240  )
        47           Au  tau(  47) = (   0.0000000   0.3333300   0.5752240  )
        48           Au  tau(  48) = (   0.0000000   0.6666700   0.5752240  )
        49           Au  tau(  49) = (   0.3333300   0.0000000   0.5752240  )
        50           Au  tau(  50) = (   0.3333300   0.3333300   0.5752240  )
        51           Au  tau(  51) = (   0.3333300   0.6666700   0.5752240  )
        52           Au  tau(  52) = (   0.6666700   0.0000000   0.5752240  )
        53           Au  tau(  53) = (   0.6666700   0.3333300   0.5752240  )
        54           Au  tau(  54) = (   0.6666700   0.6666700   0.5752240  )

     number of k points=     8 (tetrahedron method)
                       cart. coord. in units 2pi/alat
        k(    1) = (   0.0000000   0.0000000   0.0000000), wk =   0.1250000
        k(    2) = (   0.0000000   0.0000000  -0.5734114), wk =   0.1250000
        k(    3) = (   0.0000000  -0.5000000   0.0000000), wk =   0.1250000
        k(    4) = (   0.0000000  -0.5000000  -0.5734114), wk =   0.1250000
        k(    5) = (  -0.5000000  -0.5000000   0.0000000), wk =   0.1250000
        k(    6) = (  -0.5000000  -0.5000000  -0.5734114), wk =   0.1250000
        k(    7) = (  -0.5000000   0.0000000   0.0000000), wk =   0.1250000
        k(    8) = (  -0.5000000   0.0000000   0.5734114), wk =   0.1250000

     Check: negative/imaginary core charge=   -0.000006    0.000000

     Initial potential from superposition of free atoms

     starting charge  665.98709, renormalised to  666.00000
     Starting wfc are  504 randomized atomic wfcs
     Checking if some PAW data can be deallocated...

     Self-consistent Calculation

     iteration #  1     ecut=    45.00 Ry     beta= 0.10
     Davidson diagonalization with overlap
     ethr =  1.00E-02,  avg # of iterations =  3.1

     total energy              =  -33047.18548290 Ry
     Harris-Foulkes estimate   =  -33044.03841446 Ry
     estimated scf accuracy    <      27.05584679 Ry

     total magnetization       =    -0.01 Bohr mag/cell
     absolute magnetization    =    92.13 Bohr mag/cell

[...]

     total energy              =  -33062.59288415 Ry
     Harris-Foulkes estimate   =  -33062.59287905 Ry
     estimated scf accuracy    <       0.00000141 Ry

[...]

     iteration # 21     ecut=    45.00 Ry     beta= 0.10
     Davidson diagonalization with overlap
     ethr =  2.12E-10,  avg # of iterations =  2.5

     Magnetic moment per site:
     atom:    1    charge:   13.5806    magn:    3.9654    constr:    0.0000
     atom:    2    charge:   13.5748    magn:    3.9863    constr:    0.0000
     atom:    3    charge:   13.5742    magn:    4.0268    constr:    0.0000
     atom:    4    charge:   13.5733    magn:   -4.0409    constr:    0.0000
     atom:    5    charge:   13.5742    magn:    4.0268    constr:    0.0000
     atom:    6    charge:   13.5859    magn:   -3.9344    constr:    0.0000
     atom:    7    charge:   13.5668    magn:   -4.0762    constr:    0.0000
     atom:    8    charge:   13.5806    magn:    3.9652    constr:    0.0000
     atom:    9    charge:   13.5733    magn:   -4.0409    constr:    0.0000
     atom:   10    charge:   13.5743    magn:   -4.0268    constr:    0.0000
     atom:   11    charge:   13.5748    magn:   -3.9862    constr:    0.0000
     atom:   12    charge:   13.5807    magn:   -3.9653    constr:    0.0000
     atom:   13    charge:   13.5733    magn:    4.0409    constr:    0.0000
     atom:   14    charge:   13.5805    magn:   -3.9653    constr:    0.0000
     atom:   15    charge:   13.5668    magn:    4.0762    constr:    0.0000
     atom:   16    charge:   13.5861    magn:    3.9344    constr:    0.0000
     atom:   17    charge:   13.5742    magn:   -4.0268    constr:    0.0000
     atom:   18    charge:   13.5734    magn:    4.0409    constr:    0.0000
     atom:   19    charge:    9.1199    magn:    0.0141    constr:    0.0000
     atom:   20    charge:    9.1208    magn:    0.0151    constr:    0.0000
     atom:   21    charge:    9.1194    magn:   -0.0064    constr:    0.0000
     atom:   22    charge:    9.1210    magn:    0.0122    constr:    0.0000
     atom:   23    charge:    9.1194    magn:   -0.0064    constr:    0.0000
     atom:   24    charge:    9.1221    magn:   -0.0491    constr:    0.0000
     atom:   25    charge:    9.1195    magn:    0.0383    constr:    0.0000
     atom:   26    charge:    9.1198    magn:    0.0141    constr:    0.0000
     atom:   27    charge:    9.1210    magn:    0.0122    constr:    0.0000
     atom:   28    charge:    9.1199    magn:    0.0141    constr:    0.0000
     atom:   29    charge:    9.1208    magn:    0.0151    constr:    0.0000
     atom:   30    charge:    9.1194    magn:   -0.0064    constr:    0.0000
     atom:   31    charge:    9.1210    magn:    0.0122    constr:    0.0000
     atom:   32    charge:    9.1194    magn:   -0.0064    constr:    0.0000
     atom:   33    charge:    9.1221    magn:   -0.0491    constr:    0.0000
     atom:   34    charge:    9.1195    magn:    0.0383    constr:    0.0000
     atom:   35    charge:    9.1198    magn:    0.0141    constr:    0.0000
     atom:   36    charge:    9.1210    magn:    0.0122    constr:    0.0000
     atom:   37    charge:    9.1195    magn:    0.0064    constr:    0.0000
     atom:   38    charge:    9.1210    magn:   -0.0151    constr:    0.0000
     atom:   39    charge:    9.1199    magn:   -0.0141    constr:    0.0000
     atom:   40    charge:    9.1211    magn:   -0.0122    constr:    0.0000
     atom:   41    charge:    9.1198    magn:   -0.0141    constr:    0.0000
     atom:   42    charge:    9.1194    magn:   -0.0383    constr:    0.0000
     atom:   43    charge:    9.1222    magn:    0.0491    constr:    0.0000
     atom:   44    charge:    9.1194    magn:    0.0064    constr:    0.0000
     atom:   45    charge:    9.1210    magn:   -0.0122    constr:    0.0000
     atom:   46    charge:    9.1195    magn:    0.0064    constr:    0.0000
     atom:   47    charge:    9.1210    magn:   -0.0151    constr:    0.0000
     atom:   48    charge:    9.1199    magn:   -0.0141    constr:    0.0000
     atom:   49    charge:    9.1211    magn:   -0.0122    constr:    0.0000
     atom:   50    charge:    9.1198    magn:   -0.0141    constr:    0.0000
     atom:   51    charge:    9.1194    magn:   -0.0383    constr:    0.0000
     atom:   52    charge:    9.1222    magn:    0.0491    constr:    0.0000
     atom:   53    charge:    9.1194    magn:    0.0064    constr:    0.0000
     atom:   54    charge:    9.1210    magn:   -0.0122    constr:    0.0000

     End of self-consistent calculation

 ------ SPIN UP ------------

          k = 0.0000 0.0000 0.0000 ( 31747 PWs)   bands (ev):

   -66.7919 -66.7099 -66.7099 -66.7070 -66.7069 -66.6939 -66.6276 -66.6275
   -66.5391 -62.4055 -62.3938 -62.3783 -62.3783 -62.3575 -62.3575 -62.3566
   -62.3565 -62.2990 -35.5511 -35.5270 -35.5260 -35.4735 -35.4734 -35.4694
   -35.4693 -35.4536 -35.4535 -35.4510 -35.4502 -35.4501 -35.4483 -35.4481
   -35.4298 -35.4292 -35.4172 -35.4172 -35.3805 -35.3805 -35.3767 -35.3767
   -35.3550 -35.3549 -35.3088 -35.2809 -35.2643 -31.2395 -31.2291 -31.2288
   -31.2277 -31.2263 -31.2244 -31.2207 -31.2057 -31.2036 -31.2035 -31.1953
   -31.1952 -31.1905 -31.1905 -31.1879 -31.1878 -31.1827 -31.1826 -31.1821
   -31.1818 -31.1751 -31.1750 -31.1575 -31.1574 -31.1541 -31.1203 -31.1008
     5.6144   7.1381   7.1650   7.1921   7.2155   7.3631   7.8496   7.8924
     7.9012   7.9519   8.0805   8.0926   8.1368   8.1826   8.1855   8.2447
     8.2448   8.3069   8.3089   8.5094   8.5554   8.5615   8.5663   8.5926
     8.6112   8.8487   8.8550   8.8629   8.8722   8.8850   8.8889   8.8973
     8.8975   8.9112   8.9127   8.9176   8.9417   8.9629   8.9775   8.9794
     8.9795   9.0818   9.1186   9.1220   9.1231   9.1369   9.1499   9.1571
     9.1893   9.1993   9.2119   9.2643   9.2874   9.2933   9.3123   9.3468
     9.3522   9.3604   9.3688   9.3690   9.3818   9.3821   9.3883   9.4234
     9.4389   9.4500   9.4506   9.4556   9.4614   9.4679   9.4904   9.5768
     9.5772   9.5836   9.5863   9.5897   9.6035   9.6647   9.6693   9.6706
     9.6751   9.6761   9.6996   9.7324   9.7636   9.7743   9.8061   9.8481
     9.8504   9.8996   9.9030   9.9412   9.9531   9.9532  10.0202  10.0393
    10.0950  10.1125  10.1398  10.1560  10.2873  10.2903  10.2934  10.2940
    10.2961  10.2991  10.3081  10.3092  10.3143  10.3242  10.3371  10.3380
    10.3413  10.3501  10.3524  10.3575  10.3624  10.3776  10.3803  10.3817
    10.4017  10.5169  10.5196  10.5757  10.6074  10.6202  10.6244  10.6613
    10.6776  10.7767  10.7844  10.7865  10.7988  10.8233  10.8326  10.8397
    10.8448  10.8512  10.8536  10.8677  10.8740  10.8812  10.8842  10.8853
    10.8985  10.9233  11.0097  11.0164  11.0920  11.0958  11.2042  11.2179
    11.2222  11.2230  11.2291  11.2561  11.2788  11.3127  11.3330  11.3670
    11.3730  11.3788  11.3816  11.3947  11.3968  11.3973  11.4031  11.4106
    11.4214  11.4436  11.5494  11.5893  11.5898  11.5909  11.5970  11.6307
    11.6879  11.6911  11.7221  11.7288  11.7322  11.7425  11.7525  11.7547
    11.8305  11.8444  11.8578  11.8686  11.8766  11.9156  11.9214  11.9463
    11.9540  12.0577  12.0986  12.0992  12.1007  12.1025  12.1035  12.1382
    12.1428  12.1469  12.1469  12.1493  12.1627  12.1693  12.1896  12.2165
    12.2636  12.2640  12.2770  12.3212  12.3253  12.3406  12.3818  12.3946
    12.4320  12.4330  12.4362  12.4545  12.5029  12.5035  12.5056  12.5085
    12.5148  12.5407  12.5558  12.5631  12.5724  12.5960  12.6247  12.6315
    12.7082  12.7228  12.7262  12.7706  12.8214  12.9135  13.0117  13.1106
    13.1352  13.1514  13.1906  13.2057  13.3339  13.6675  13.7555  13.8502
    13.9353  14.0416  14.0740  14.2006  14.2921  14.3264  14.3610  14.6302
    14.7759  14.8153  14.8439  14.8862  15.0808  15.1242  15.1639  15.2668
    15.2773  15.2877  15.2942  15.3908  15.3935  15.4311  15.5451  15.6487
    15.6527  15.6583  15.7031  15.7997  15.8504  15.8717  15.8910  15.9857
    16.0058  16.0489  16.0760  16.0987  16.1179  16.1679  16.1912  16.2163
    16.2495  16.2582  16.2670  16.2796  16.3215  16.3408  16.3785  16.4000
    16.4566  16.4789  16.5714  16.5967  16.6441  16.6457  16.7508  16.7991
    17.0266  17.0291  17.1583  17.1791  17.2099  17.2169  17.2327  17.2903
    17.4345  17.5716  17.8656  17.9003  17.9206  17.9386  17.9633  18.1892
    18.2917  18.2972  18.4372  18.9341  18.9659  18.9915  19.1866  19.2570

[...]

          k =-0.5000-0.5000 0.0000 ( 31612 PWs)   bands (ev):

[...]

 ------ SPIN DOWN ----------

[...]

          k = 0.0000-0.5000-0.5734 ( 31696 PWs)   bands (ev):

[...]

          k =-0.5000 0.0000 0.5734 ( 31696 PWs)   bands (ev):

   -66.7918 -66.7100 -66.7100 -66.7069 -66.7068 -66.6941 -66.6277 -66.6276
   -66.5390 -62.4056 -62.3936 -62.3783 -62.3783 -62.3574 -62.3574 -62.3565
   -62.3565 -62.2990 -35.5510 -35.5269 -35.5259 -35.4736 -35.4735 -35.4695
   -35.4694 -35.4535 -35.4534 -35.4511 -35.4501 -35.4500 -35.4482 -35.4481
   -35.4300 -35.4294 -35.4173 -35.4172 -35.3807 -35.3806 -35.3769 -35.3767
   -35.3551 -35.3550 -35.3087 -35.2809 -35.2642 -31.2395 -31.2291 -31.2289
   -31.2277 -31.2262 -31.2245 -31.2206 -31.2055 -31.2035 -31.2032 -31.1952
   -31.1950 -31.1905 -31.1905 -31.1878 -31.1877 -31.1828 -31.1825 -31.1821
   -31.1817 -31.1751 -31.1750 -31.1574 -31.1573 -31.1541 -31.1203 -31.1008
     6.5365   6.5537   6.6119   6.6293   7.8345   7.8520   7.8595   7.8790
     7.9069   7.9122   7.9275   7.9410   8.2704   8.2739   8.2999   8.3002
     8.5141   8.5157   8.5337   8.5379   8.6654   8.6673   8.6726   8.6756
     8.6893   8.6921   8.7011   8.7107   8.7367   8.7388   8.7395   8.7491
     8.7546   8.7711   8.7843   8.8072   8.9577   8.9786   9.0231   9.0371
     9.0398   9.0441   9.0479   9.0567   9.1945   9.2046   9.2092   9.2139
     9.2159   9.2168   9.2323   9.2330   9.2370   9.2455   9.2474   9.2526
     9.2536   9.2738   9.2848   9.2932   9.3116   9.3226   9.3845   9.3916
     9.4213   9.4267   9.4474   9.4584   9.4630   9.4640   9.4681   9.4835
     9.4975   9.5115   9.5173   9.5256   9.5279   9.5346   9.5468   9.5517
     9.5654   9.5861   9.7532   9.7551   9.7996   9.8001   9.8032   9.8111
     9.8204   9.8363   9.8447   9.8496   9.8604   9.8631   9.8687   9.8793
     9.9487   9.9585  10.0034  10.0124  10.0230  10.0284  10.0543  10.0622
    10.3641  10.3681  10.3875  10.3950  10.4050  10.4204  10.4216  10.4421
    10.4566  10.4652  10.4669  10.4749  10.4801  10.4871  10.4994  10.5066
    10.5107  10.5521  10.5688  10.5700  10.5898  10.5911  10.6319  10.6325
    10.6441  10.6531  10.6725  10.6783  10.6805  10.6979  10.7000  10.7522
    10.7595  10.7797  10.8589  10.8628  10.9678  10.9714  11.0333  11.0773
    11.1101  11.1210  11.1294  11.1570  11.1837  11.1908  11.1924  11.1990
    11.2098  11.2105  11.2670  11.3304  11.3423  11.3513  11.3740  11.3778
    11.3814  11.3818  11.4135  11.4409  11.4530  11.4779  11.4821  11.4970
    11.5243  11.5556  11.5653  11.5682  11.5843  11.6020  11.6126  11.6233
    11.6380  11.6403  11.7285  11.7372  11.7748  11.7756  11.7938  11.8057
    11.8481  11.9187  11.9287  11.9681  11.9718  11.9723  12.0081  12.0110
    12.0270  12.0289  12.0337  12.0362  12.0404  12.0472  12.0920  12.1479
    12.1932  12.2014  12.2260  12.2265  12.2387  12.2541  12.3033  12.3344
    12.3550  12.3783  12.3796  12.4017  12.4296  12.4395  12.4510  12.4616
    12.4646  12.4982  12.4988  12.5139  12.5514  12.5517  12.5550  12.6167
    12.6217  12.6389  12.6433  12.6481  12.6516  12.6983  12.7184  12.7383
    12.7707  12.8129  12.8971  12.9115  12.9607  12.9925  13.0067  13.0894
    13.1586  13.2314  13.3394  13.4486  13.5480  13.6290  13.8045  13.9077
    13.9451  13.9676  14.0304  14.0545  14.0684  14.3167  14.3619  14.4753
    14.4878  14.5216  14.5370  14.5535  14.5569  14.6970  14.7148  14.8818
    15.0329  15.2717  15.3501  15.3771  15.3832  15.3976  15.5223  15.5781
    15.5900  15.6708  15.6808  15.7123  15.7704  15.8930  15.9027  16.0232
    16.0318  16.0451  16.0791  16.1409  16.1486  16.1728  16.2093  16.2263
    16.2361  16.2781  16.2790  16.2994  16.3361  16.3784  16.4341  16.4385
    16.4525  16.5386  16.5812  16.5849  16.6107  16.6454  16.6562  16.6613
    16.7770  16.8410  16.8465  16.9058  16.9175  16.9792  16.9946  17.0219
    17.0979  17.1224  17.1816  17.2301  18.6254  18.6579  18.7106  18.7147
    18.7425  18.7557  18.8191  18.8340  18.8853  18.8970  18.9501  18.9728

     the Fermi energy is    14.8139 ev

!    total energy              =  -33062.59290232 Ry
     Harris-Foulkes estimate   =  -33062.59288352 Ry
     estimated scf accuracy    <       0.00000072 Ry

     total all-electron energy =  -1410574.683277 Ry

     The total energy is the sum of the following terms:

     one-electron contribution =   -1645.65697876 Ry
     hartree contribution      =    1489.85601033 Ry
     xc contribution           =   -1658.72463451 Ry
     ewald contribution        =   -4919.25534656 Ry
     one-center paw contrib.   =  -26328.81195282 Ry

     total magnetization       =    -0.00 Bohr mag/cell
     absolute magnetization    =    78.61 Bohr mag/cell

     convergence has been achieved in  21 iterations

     Writing output data file mnau2.save

     General routines

     Parallel routines

   This run was terminated on:  19:36: 4   5Mar2019

   JOB DONE.