     Program PWSCF v.6.2 (svn rev. 14038) starts on  6Mar2019 at  3: 8:22

     R & G space division:  proc/nbgrp/npool/nimage =      16
     Waiting for input...
     Reading input from standard input

     Current dimensions of program PWSCF are:
     Max number of different atomic species (ntypx) = 10
     Max number of k-points (npk) =  40000
     Max angular momentum in pseudopotentials (lmaxx) =  3
               file Mn.pbe-spn-kjpaw_psl.0.3.1.UPF: wavefunction(s)  3P 3D renormalized
               file Mn.pbe-spn-kjpaw_psl.0.3.1.UPF: wavefunction(s)  3P 3D renormalized
               file Au.pbe-dn-kjpaw_psl.0.1.UPF: wavefunction(s)  6S 6P 5D renormalized

     Subspace diagonalization in iterative solution of the eigenvalue problem:
     a serial algorithm will be used

     bravais-lattice index     =            0
     lattice parameter (alat)  =      19.2459  a.u.
     unit-cell volume          =    6216.1497 (a.u.)^3
     number of atoms/cell      =           54
     number of atomic types    =            3
     number of electrons       =       666.00
     number of Kohn-Sham states=          400
     kinetic-energy cutoff     =      45.0000  Ry
     charge density cutoff     =     400.0000  Ry
     convergence threshold     =      1.0E-06
     mixing beta               =       0.1000
     number of iterations used =            8  plain     mixing
     Exchange-correlation      = SLA PW PBX PBC ( 1  4  3  4 0 0)

     celldm(1)=  19.245946  celldm(2)=   0.000000  celldm(3)=   0.000000
     celldm(4)=   0.000000  celldm(5)=   0.000000  celldm(6)=   0.000000

     crystal axes: (cart. coord. in units of alat)
               a(1) = (   1.000000   0.000000   0.000000 )
               a(2) = (   0.000000   1.000000   0.000000 )
               a(3) = (   0.000000   0.000000   0.871974 )

     reciprocal axes: (cart. coord. in units 2 pi/alat)
               b(1) = (  1.000000  0.000000  0.000000 )
               b(2) = (  0.000000  1.000000  0.000000 )
               b(3) = (  0.000000  0.000000  1.146823 )

     PseudoPot. # 1 for Mn read from file:
     ./pseudo/Mn.pbe-spn-kjpaw_psl.0.3.1.UPF
     MD5 check sum: 7eef95dd2aae66803482eea66ebeebf1
     Pseudo is Projector augmented-wave + core cor, Zval = 15.0
     Generated using "atomic" code by A. Dal Corso v.5.0.99 svn rev. 10869
     Shape of augmentation charge: PSQ
     Using radial grid of 1187 points,  6 beta functions with:
                l(1) =   0
                l(2) =   0
                l(3) =   1
                l(4) =   1
                l(5) =   2
                l(6) =   2
     Q(r) pseudized with 0 coefficients

     PseudoPot. # 2 for Mn read from file:
     ./pseudo/Mn.pbe-spn-kjpaw_psl.0.3.1.UPF
     MD5 check sum: 7eef95dd2aae66803482eea66ebeebf1
     Pseudo is Projector augmented-wave + core cor, Zval = 15.0
     Generated using "atomic" code by A. Dal Corso v.5.0.99 svn rev. 10869
     Shape of augmentation charge: PSQ
     Using radial grid of 1187 points,  6 beta functions with:
                l(1) =   0
                l(2) =   0
                l(3) =   1
                l(4) =   1
                l(5) =   2
                l(6) =   2
     Q(r) pseudized with 0 coefficients

     PseudoPot. # 3 for Au read from file:
     ./pseudo/Au.pbe-dn-kjpaw_psl.0.1.UPF
     MD5 check sum: 5c9b92683623e7ae2ab3f8e525febab6
     Pseudo is Projector augmented-wave + core cor, Zval = 11.0
     Generated using "atomic" code by A. Dal Corso v.5.0.2 svn rev. 9415
     Shape of augmentation charge: PSQ
     Using radial grid of 1279 points,  6 beta functions with:
                l(1) =   0
                l(2) =   0
                l(3) =   1
                l(4) =   1
                l(5) =   2
                l(6) =   2
     Q(r) pseudized with 0 coefficients

     atomic species   valence    mass     pseudopotential
        Mn1           15.00    54.93800     Mn( 1.00)
        Mn2           15.00    54.93800     Mn( 1.00)
        Au            11.00   196.96600     Au( 1.00)

     Starting magnetic structure
     atomic species   magnetization
        Mn1          0.800
        Mn2         -0.800
        Au           0.000

      2 Sym. Ops. (no inversion) found

   Cartesian axes

     site n.     atom                  positions (alat units)
         1           Mn1 tau(   1) = (   0.0000000   0.0000000   0.0000000  )
         2           Mn1 tau(   2) = (   0.0000000   0.3333300   0.0000000  )
         3           Mn1 tau(   3) = (   0.0000000   0.6666700   0.0000000  )
         4           Mn2 tau(   4) = (   0.3333300   0.0000000   0.0000000  )
         5           Mn2 tau(   5) = (   0.3333300   0.3333300   0.0000000  )
         6           Mn1 tau(   6) = (   0.3333300   0.6666700   0.0000000  )
         7           Mn2 tau(   7) = (   0.6666700   0.0000000   0.0000000  )
         8           Mn2 tau(   8) = (   0.6666700   0.3333300   0.0000000  )
         9           Mn1 tau(   9) = (   0.6666700   0.6666700   0.0000000  )
        10           Mn2 tau(  10) = (   0.1666700   0.1666700   0.4359871  )
        11           Mn2 tau(  11) = (   0.1666700   0.5000000   0.4359871  )
        12           Mn2 tau(  12) = (   0.1666700   0.8333300   0.4359871  )
        13           Mn1 tau(  13) = (   0.5000000   0.1666700   0.4359871  )
        14           Mn1 tau(  14) = (   0.5000000   0.5000000   0.4359871  )
        15           Mn2 tau(  15) = (   0.5000000   0.8333300   0.4359871  )
        16           Mn1 tau(  16) = (   0.8333300   0.1666700   0.4359871  )
        17           Mn1 tau(  17) = (   0.8333300   0.5000000   0.4359871  )
        18           Mn2 tau(  18) = (   0.8333300   0.8333300   0.4359871  )
        19           Au  tau(  19) = (   0.1666700   0.1666700   0.7327374  )
        20           Au  tau(  20) = (   0.1666700   0.5000000   0.7327374  )
        21           Au  tau(  21) = (   0.1666700   0.8333300   0.7327374  )
        22           Au  tau(  22) = (   0.5000000   0.1666700   0.7327374  )
        23           Au  tau(  23) = (   0.5000000   0.5000000   0.7327374  )
        24           Au  tau(  24) = (   0.5000000   0.8333300   0.7327374  )
        25           Au  tau(  25) = (   0.8333300   0.1666700   0.7327374  )
        26           Au  tau(  26) = (   0.8333300   0.5000000   0.7327374  )
        27           Au  tau(  27) = (   0.8333300   0.8333300   0.7327374  )
        28           Au  tau(  28) = (   0.1666700   0.1666700   0.1392369  )
        29           Au  tau(  29) = (   0.1666700   0.5000000   0.1392369  )
        30           Au  tau(  30) = (   0.1666700   0.8333300   0.1392369  )
        31           Au  tau(  31) = (   0.5000000   0.1666700   0.1392369  )
        32           Au  tau(  32) = (   0.5000000   0.5000000   0.1392369  )
        33           Au  tau(  33) = (   0.5000000   0.8333300   0.1392369  )
        34           Au  tau(  34) = (   0.8333300   0.1666700   0.1392369  )
        35           Au  tau(  35) = (   0.8333300   0.5000000   0.1392369  )
        36           Au  tau(  36) = (   0.8333300   0.8333300   0.1392369  )
        37           Au  tau(  37) = (   0.0000000   0.0000000   0.2967503  )
        38           Au  tau(  38) = (   0.0000000   0.3333300   0.2967503  )
        39           Au  tau(  39) = (   0.0000000   0.6666700   0.2967503  )
        40           Au  tau(  40) = (   0.3333300   0.0000000   0.2967503  )
        41           Au  tau(  41) = (   0.3333300   0.3333300   0.2967503  )
        42           Au  tau(  42) = (   0.3333300   0.6666700   0.2967503  )
        43           Au  tau(  43) = (   0.6666700   0.0000000   0.2967503  )
        44           Au  tau(  44) = (   0.6666700   0.3333300   0.2967503  )
        45           Au  tau(  45) = (   0.6666700   0.6666700   0.2967503  )
        46           Au  tau(  46) = (   0.0000000   0.0000000   0.5752240  )
        47           Au  tau(  47) = (   0.0000000   0.3333300   0.5752240  )
        48           Au  tau(  48) = (   0.0000000   0.6666700   0.5752240  )
        49           Au  tau(  49) = (   0.3333300   0.0000000   0.5752240  )
        50           Au  tau(  50) = (   0.3333300   0.3333300   0.5752240  )
        51           Au  tau(  51) = (   0.3333300   0.6666700   0.5752240  )
        52           Au  tau(  52) = (   0.6666700   0.0000000   0.5752240  )
        53           Au  tau(  53) = (   0.6666700   0.3333300   0.5752240  )
        54           Au  tau(  54) = (   0.6666700   0.6666700   0.5752240  )

     number of k points=     8 (tetrahedron method)
                       cart. coord. in units 2pi/alat
        k(    1) = (   0.0000000   0.0000000   0.0000000), wk =   0.1250000
        k(    2) = (   0.0000000   0.0000000  -0.5734114), wk =   0.1250000
        k(    3) = (   0.0000000  -0.5000000   0.0000000), wk =   0.1250000
        k(    4) = (   0.0000000  -0.5000000  -0.5734114), wk =   0.1250000
        k(    5) = (  -0.5000000  -0.5000000   0.0000000), wk =   0.1250000
        k(    6) = (  -0.5000000  -0.5000000  -0.5734114), wk =   0.1250000
        k(    7) = (  -0.5000000   0.0000000   0.0000000), wk =   0.1250000
        k(    8) = (  -0.5000000   0.0000000   0.5734114), wk =   0.1250000

     Check: negative/imaginary core charge=   -0.000006    0.000000

     Initial potential from superposition of free atoms

     starting charge  665.98709, renormalised to  666.00000
     Starting wfc are  504 randomized atomic wfcs
     Checking if some PAW data can be deallocated...

     Self-consistent Calculation

     iteration #  1     ecut=    45.00 Ry     beta= 0.10
     Davidson diagonalization with overlap
     ethr =  1.00E-02,  avg # of iterations =  3.1

     total energy              =  -33047.18555652 Ry
     Harris-Foulkes estimate   =  -33044.03800302 Ry
     estimated scf accuracy    <      27.05584384 Ry

     total magnetization       =    -0.00 Bohr mag/cell
     absolute magnetization    =    92.13 Bohr mag/cell

[...]

     total energy              =  -33062.59288923 Ry
     Harris-Foulkes estimate   =  -33062.59288406 Ry
     estimated scf accuracy    <       0.00000136 Ry

[...]

     iteration # 21     ecut=    45.00 Ry     beta= 0.10
     Davidson diagonalization with overlap
     ethr =  2.05E-10,  avg # of iterations =  2.6

     Magnetic moment per site:
     atom:    1    charge:   13.5742    magn:    4.0270    constr:    0.0000
     atom:    2    charge:   13.5806    magn:    3.9654    constr:    0.0000
     atom:    3    charge:   13.5747    magn:    3.9864    constr:    0.0000
     atom:    4    charge:   13.5860    magn:   -3.9345    constr:    0.0000
     atom:    5    charge:   13.5733    magn:   -4.0410    constr:    0.0000
     atom:    6    charge:   13.5741    magn:    4.0269    constr:    0.0000
     atom:    7    charge:   13.5733    magn:   -4.0410    constr:    0.0000
     atom:    8    charge:   13.5668    magn:   -4.0762    constr:    0.0000
     atom:    9    charge:   13.5806    magn:    3.9654    constr:    0.0000
     atom:   10    charge:   13.5807    magn:   -3.9654    constr:    0.0000
     atom:   11    charge:   13.5741    magn:   -4.0269    constr:    0.0000
     atom:   12    charge:   13.5748    magn:   -3.9864    constr:    0.0000
     atom:   13    charge:   13.5668    magn:    4.0763    constr:    0.0000
     atom:   14    charge:   13.5732    magn:    4.0410    constr:    0.0000
     atom:   15    charge:   13.5806    magn:   -3.9654    constr:    0.0000
     atom:   16    charge:   13.5734    magn:    4.0410    constr:    0.0000
     atom:   17    charge:   13.5859    magn:    3.9346    constr:    0.0000
     atom:   18    charge:   13.5742    magn:   -4.0270    constr:    0.0000
     atom:   19    charge:    9.1195    magn:   -0.0064    constr:    0.0000
     atom:   20    charge:    9.1199    magn:    0.0141    constr:    0.0000
     atom:   21    charge:    9.1210    magn:    0.0151    constr:    0.0000
     atom:   22    charge:    9.1221    magn:   -0.0491    constr:    0.0000
     atom:   23    charge:    9.1211    magn:    0.0122    constr:    0.0000
     atom:   24    charge:    9.1195    magn:   -0.0064    constr:    0.0000
     atom:   25    charge:    9.1211    magn:    0.0122    constr:    0.0000
     atom:   26    charge:    9.1194    magn:    0.0383    constr:    0.0000
     atom:   27    charge:    9.1199    magn:    0.0141    constr:    0.0000
     atom:   28    charge:    9.1195    magn:   -0.0064    constr:    0.0000
     atom:   29    charge:    9.1199    magn:    0.0141    constr:    0.0000
     atom:   30    charge:    9.1210    magn:    0.0151    constr:    0.0000
     atom:   31    charge:    9.1221    magn:   -0.0491    constr:    0.0000
     atom:   32    charge:    9.1211    magn:    0.0122    constr:    0.0000
     atom:   33    charge:    9.1195    magn:   -0.0064    constr:    0.0000
     atom:   34    charge:    9.1211    magn:    0.0122    constr:    0.0000
     atom:   35    charge:    9.1194    magn:    0.0383    constr:    0.0000
     atom:   36    charge:    9.1199    magn:    0.0141    constr:    0.0000
     atom:   37    charge:    9.1200    magn:   -0.0141    constr:    0.0000
     atom:   38    charge:    9.1196    magn:    0.0064    constr:    0.0000
     atom:   39    charge:    9.1210    magn:   -0.0151    constr:    0.0000
     atom:   40    charge:    9.1195    magn:   -0.0383    constr:    0.0000
     atom:   41    charge:    9.1210    magn:   -0.0122    constr:    0.0000
     atom:   42    charge:    9.1198    magn:   -0.0142    constr:    0.0000
     atom:   43    charge:    9.1211    magn:   -0.0122    constr:    0.0000
     atom:   44    charge:    9.1221    magn:    0.0491    constr:    0.0000
     atom:   45    charge:    9.1194    magn:    0.0064    constr:    0.0000
     atom:   46    charge:    9.1200    magn:   -0.0141    constr:    0.0000
     atom:   47    charge:    9.1196    magn:    0.0064    constr:    0.0000
     atom:   48    charge:    9.1210    magn:   -0.0151    constr:    0.0000
     atom:   49    charge:    9.1195    magn:   -0.0383    constr:    0.0000
     atom:   50    charge:    9.1210    magn:   -0.0122    constr:    0.0000
     atom:   51    charge:    9.1198    magn:   -0.0142    constr:    0.0000
     atom:   52    charge:    9.1211    magn:   -0.0122    constr:    0.0000
     atom:   53    charge:    9.1221    magn:    0.0491    constr:    0.0000
     atom:   54    charge:    9.1194    magn:    0.0064    constr:    0.0000

     End of self-consistent calculation

 ------ SPIN UP ------------

          k = 0.0000 0.0000 0.0000 ( 31747 PWs)   bands (ev):

   -66.7924 -66.7103 -66.7102 -66.7074 -66.7073 -66.6942 -66.6280 -66.6280
   -66.5395 -62.4053 -62.3931 -62.3777 -62.3776 -62.3570 -62.3569 -62.3560
   -62.3560 -62.2987 -35.5516 -35.5274 -35.5265 -35.4739 -35.4738 -35.4697
   -35.4696 -35.4540 -35.4539 -35.4513 -35.4506 -35.4505 -35.4486 -35.4485
   -35.4301 -35.4295 -35.4175 -35.4175 -35.3810 -35.3809 -35.3771 -35.3771
   -35.3554 -35.3553 -35.3092 -35.2813 -35.2647 -31.2392 -31.2286 -31.2285
   -31.2271 -31.2257 -31.2242 -31.2200 -31.2050 -31.2031 -31.2030 -31.1947
   -31.1946 -31.1900 -31.1900 -31.1873 -31.1872 -31.1822 -31.1821 -31.1816
   -31.1813 -31.1747 -31.1746 -31.1570 -31.1569 -31.1538 -31.1201 -31.1005
     5.6144   7.1381   7.1650   7.1921   7.2154   7.3632   7.8496   7.8923
     7.9011   7.9518   8.0804   8.0925   8.1367   8.1825   8.1855   8.2446
     8.2447   8.3069   8.3090   8.5093   8.5553   8.5614   8.5662   8.5926
     8.6111   8.8486   8.8550   8.8627   8.8721   8.8849   8.8888   8.8972
     8.8975   8.9112   8.9126   8.9175   8.9416   8.9628   8.9773   8.9793
     8.9793   9.0818   9.1185   9.1218   9.1230   9.1368   9.1498   9.1570
     9.1891   9.1992   9.2118   9.2643   9.2873   9.2933   9.3123   9.3466
     9.3521   9.3603   9.3687   9.3689   9.3817   9.3821   9.3882   9.4233
     9.4389   9.4499   9.4506   9.4555   9.4613   9.4678   9.4902   9.5767
     9.5771   9.5835   9.5862   9.5896   9.6034   9.6646   9.6692   9.6705
     9.6750   9.6760   9.6995   9.7323   9.7635   9.7742   9.8059   9.8480
     9.8503   9.8995   9.9029   9.9411   9.9530   9.9531  10.0201  10.0392
    10.0949  10.1124  10.1397  10.1559  10.2872  10.2902  10.2934  10.2939
    10.2960  10.2989  10.3080  10.3091  10.3143  10.3241  10.3369  10.3380
    10.3412  10.3500  10.3523  10.3573  10.3624  10.3775  10.3802  10.3816
    10.4016  10.5168  10.5195  10.5755  10.6073  10.6201  10.6242  10.6612
    10.6774  10.7766  10.7843  10.7864  10.7987  10.8232  10.8325  10.8396
    10.8446  10.8512  10.8535  10.8677  10.8739  10.8810  10.8842  10.8852
    10.8983  10.9232  11.0095  11.0163  11.0918  11.0956  11.2041  11.2178
    11.2221  11.2230  11.2290  11.2561  11.2786  11.3126  11.3330  11.3670
    11.3729  11.3787  11.3815  11.3946  11.3966  11.3972  11.4029  11.4105
    11.4212  11.4435  11.5493  11.5891  11.5897  11.5909  11.5968  11.6305
    11.6877  11.6910  11.7220  11.7287  11.7321  11.7424  11.7523  11.7546
    11.8303  11.8443  11.8577  11.8684  11.8765  11.9154  11.9213  11.9461
    11.9539  12.0576  12.0985  12.0991  12.1006  12.1024  12.1034  12.1381
    12.1427  12.1467  12.1468  12.1491  12.1625  12.1692  12.1895  12.2163
    12.2635  12.2638  12.2769  12.3210  12.3252  12.3403  12.3816  12.3944
    12.4317  12.4329  12.4359  12.4543  12.5027  12.5033  12.5053  12.5082
    12.5146  12.5405  12.5555  12.5629  12.5721  12.5958  12.6244  12.6313
    12.7079  12.7226  12.7260  12.7703  12.8212  12.9133  13.0115  13.1104
    13.1350  13.1512  13.1904  13.2054  13.3337  13.6673  13.7555  13.8501
    13.9353  14.0415  14.0739  14.2005  14.2921  14.3264  14.3610  14.6301
    14.7759  14.8154  14.8440  14.8862  15.0809  15.1243  15.1640  15.2669
    15.2774  15.2878  15.2942  15.3909  15.3936  15.4312  15.5452  15.6488
    15.6530  15.6584  15.7032  15.8001  15.8505  15.8719  15.8913  15.9860
    16.0060  16.0491  16.0763  16.0989  16.1180  16.1680  16.1914  16.2165
    16.2497  16.2583  16.2674  16.2798  16.3218  16.3411  16.3786  16.4001
    16.4569  16.4791  16.5717  16.5969  16.6443  16.6458  16.7510  16.7994
    17.0269  17.0290  17.1585  17.1791  17.2099  17.2170  17.2329  17.2904
    17.4346  17.5718  17.8657  17.9003  17.9206  17.9385  17.9633  18.1891
    18.2917  18.2971  18.4373  18.9340  18.9658  18.9915  19.1769  19.1866

[...]

          k =-0.5000-0.5000 0.0000 ( 31612 PWs)   bands (ev):

[...]

 ------ SPIN DOWN ----------

[...]

          k = 0.0000-0.5000-0.5734 ( 31696 PWs)   bands (ev):

[...]

          k =-0.5000 0.0000 0.5734 ( 31696 PWs)   bands (ev):

   -66.7924 -66.7103 -66.7103 -66.7073 -66.7073 -66.6942 -66.6281 -66.6280
   -66.5395 -62.4053 -62.3931 -62.3777 -62.3777 -62.3570 -62.3569 -62.3560
   -62.3560 -62.2986 -35.5516 -35.5274 -35.5264 -35.4739 -35.4738 -35.4697
   -35.4697 -35.4539 -35.4539 -35.4513 -35.4505 -35.4505 -35.4486 -35.4485
   -35.4301 -35.4295 -35.4175 -35.4174 -35.3810 -35.3809 -35.3772 -35.3771
   -35.3555 -35.3553 -35.3091 -35.2812 -35.2646 -31.2393 -31.2286 -31.2286
   -31.2271 -31.2256 -31.2242 -31.2201 -31.2050 -31.2030 -31.2029 -31.1947
   -31.1944 -31.1900 -31.1900 -31.1873 -31.1872 -31.1825 -31.1821 -31.1816
   -31.1813 -31.1747 -31.1746 -31.1571 -31.1569 -31.1537 -31.1199 -31.1004
     6.5365   6.5536   6.6119   6.6293   7.8344   7.8518   7.8596   7.8789
     7.9069   7.9121   7.9274   7.9412   8.2704   8.2738   8.2998   8.3002
     8.5141   8.5155   8.5337   8.5378   8.6653   8.6672   8.6725   8.6755
     8.6892   8.6921   8.7010   8.7106   8.7367   8.7387   8.7395   8.7490
     8.7545   8.7710   8.7843   8.8072   8.9576   8.9785   9.0230   9.0370
     9.0397   9.0440   9.0479   9.0567   9.1945   9.2045   9.2091   9.2138
     9.2157   9.2167   9.2321   9.2329   9.2368   9.2455   9.2474   9.2526
     9.2536   9.2738   9.2847   9.2931   9.3114   9.3224   9.3844   9.3916
     9.4212   9.4266   9.4473   9.4583   9.4629   9.4639   9.4680   9.4834
     9.4975   9.5114   9.5172   9.5254   9.5277   9.5346   9.5467   9.5516
     9.5653   9.5860   9.7531   9.7550   9.7995   9.8000   9.8030   9.8111
     9.8203   9.8362   9.8446   9.8495   9.8603   9.8629   9.8686   9.8793
     9.9486   9.9584  10.0033  10.0123  10.0228  10.0283  10.0542  10.0621
    10.3639  10.3681  10.3874  10.3948  10.4049  10.4202  10.4215  10.4420
    10.4565  10.4651  10.4668  10.4748  10.4800  10.4870  10.4993  10.5065
    10.5106  10.5520  10.5687  10.5699  10.5897  10.5909  10.6317  10.6324
    10.6441  10.6530  10.6724  10.6782  10.6804  10.6978  10.6999  10.7521
    10.7595  10.7796  10.8587  10.8627  10.9677  10.9712  11.0333  11.0772
    11.1100  11.1209  11.1292  11.1569  11.1836  11.1908  11.1923  11.1989
    11.2096  11.2104  11.2669  11.3303  11.3421  11.3511  11.3739  11.3777
    11.3812  11.3817  11.4133  11.4407  11.4528  11.4778  11.4820  11.4968
    11.5242  11.5554  11.5652  11.5680  11.5842  11.6018  11.6124  11.6231
    11.6379  11.6402  11.7284  11.7371  11.7747  11.7755  11.7937  11.8057
    11.8480  11.9186  11.9285  11.9679  11.9717  11.9722  12.0080  12.0109
    12.0268  12.0287  12.0335  12.0360  12.0403  12.0471  12.0918  12.1478
    12.1930  12.2013  12.2259  12.2264  12.2385  12.2539  12.3031  12.3342
    12.3549  12.3782  12.3794  12.4016  12.4295  12.4394  12.4508  12.4615
    12.4644  12.4981  12.4986  12.5137  12.5512  12.5515  12.5548  12.6166
    12.6216  12.6387  12.6432  12.6480  12.6515  12.6982  12.7183  12.7382
    12.7705  12.8128  12.8969  12.9113  12.9606  12.9924  13.0065  13.0892
    13.1584  13.2313  13.3394  13.4485  13.5478  13.6288  13.8045  13.9076
    13.9450  13.9676  14.0303  14.0544  14.0683  14.3166  14.3619  14.4752
    14.4877  14.5216  14.5370  14.5535  14.5569  14.6969  14.7147  14.8819
    15.0329  15.2718  15.3502  15.3771  15.3833  15.3977  15.5224  15.5783
    15.5901  15.6709  15.6809  15.7125  15.7706  15.8931  15.9029  16.0233
    16.0319  16.0453  16.0793  16.1411  16.1487  16.1729  16.2095  16.2264
    16.2363  16.2783  16.2791  16.2996  16.3363  16.3786  16.4343  16.4386
    16.4526  16.5388  16.5813  16.5850  16.6109  16.6456  16.6564  16.6615
    16.7771  16.8412  16.8467  16.9060  16.9177  16.9794  16.9948  17.0220
    17.0980  17.1227  17.1817  17.2303  18.6254  18.6579  18.7105  18.7148
    18.7424  18.7557  18.8191  18.8340  18.8852  18.8970  18.9500  18.9728

     the Fermi energy is    14.8139 ev

!    total energy              =  -33062.59290646 Ry
     Harris-Foulkes estimate   =  -33062.59288774 Ry
     estimated scf accuracy    <       0.00000059 Ry

     total all-electron energy =  -1410574.683281 Ry

     The total energy is the sum of the following terms:

     one-electron contribution =   -1645.65786837 Ry
     hartree contribution      =    1489.86094634 Ry
     xc contribution           =   -1658.72760650 Ry
     ewald contribution        =   -4919.25534656 Ry
     one-center paw contrib.   =  -26328.81303136 Ry

     total magnetization       =     0.00 Bohr mag/cell
     absolute magnetization    =    78.61 Bohr mag/cell

     convergence has been achieved in  21 iterations

     Writing output data file mnau2.save

     General routines

     Parallel routines

   This run was terminated on:   4: 2:41   6Mar2019

   JOB DONE.