     Program PWSCF v.6.2 (svn rev. 14038) starts on  6Mar2019 at  4:57:47

     R & G space division:  proc/nbgrp/npool/nimage =      16
     Waiting for input...
     Reading input from standard input

     Current dimensions of program PWSCF are:
     Max number of different atomic species (ntypx) = 10
     Max number of k-points (npk) =  40000
     Max angular momentum in pseudopotentials (lmaxx) =  3
               file Mn.pbe-spn-kjpaw_psl.0.3.1.UPF: wavefunction(s)  3P 3D renormalized
               file Mn.pbe-spn-kjpaw_psl.0.3.1.UPF: wavefunction(s)  3P 3D renormalized
               file Au.pbe-dn-kjpaw_psl.0.1.UPF: wavefunction(s)  6S 6P 5D renormalized

     Subspace diagonalization in iterative solution of the eigenvalue problem:
     a serial algorithm will be used

     Found symmetry operation: I + (  0.0000 -0.3333  0.0000)
     This is a supercell, fractional translations are disabled

     bravais-lattice index     =            0
     lattice parameter (alat)  =      19.2459  a.u.
     unit-cell volume          =    6216.1497 (a.u.)^3
     number of atoms/cell      =           54
     number of atomic types    =            3
     number of electrons       =       666.00
     number of Kohn-Sham states=          400
     kinetic-energy cutoff     =      45.0000  Ry
     charge density cutoff     =     400.0000  Ry
     convergence threshold     =      1.0E-06
     mixing beta               =       0.1000
     number of iterations used =            8  plain     mixing
     Exchange-correlation      = SLA PW PBX PBC ( 1  4  3  4 0 0)

     celldm(1)=  19.245946  celldm(2)=   0.000000  celldm(3)=   0.000000
     celldm(4)=   0.000000  celldm(5)=   0.000000  celldm(6)=   0.000000

     crystal axes: (cart. coord. in units of alat)
               a(1) = (   1.000000   0.000000   0.000000 )
               a(2) = (   0.000000   1.000000   0.000000 )
               a(3) = (   0.000000   0.000000   0.871974 )

     reciprocal axes: (cart. coord. in units 2 pi/alat)
               b(1) = (  1.000000  0.000000  0.000000 )
               b(2) = (  0.000000  1.000000  0.000000 )
               b(3) = (  0.000000  0.000000  1.146823 )

     PseudoPot. # 1 for Mn read from file:
     ./pseudo/Mn.pbe-spn-kjpaw_psl.0.3.1.UPF
     MD5 check sum: 7eef95dd2aae66803482eea66ebeebf1
     Pseudo is Projector augmented-wave + core cor, Zval = 15.0
     Generated using "atomic" code by A. Dal Corso v.5.0.99 svn rev. 10869
     Shape of augmentation charge: PSQ
     Using radial grid of 1187 points,  6 beta functions with:
                l(1) =   0
                l(2) =   0
                l(3) =   1
                l(4) =   1
                l(5) =   2
                l(6) =   2
     Q(r) pseudized with 0 coefficients

     PseudoPot. # 2 for Mn read from file:
     ./pseudo/Mn.pbe-spn-kjpaw_psl.0.3.1.UPF
     MD5 check sum: 7eef95dd2aae66803482eea66ebeebf1
     Pseudo is Projector augmented-wave + core cor, Zval = 15.0
     Generated using "atomic" code by A. Dal Corso v.5.0.99 svn rev. 10869
     Shape of augmentation charge: PSQ
     Using radial grid of 1187 points,  6 beta functions with:
                l(1) =   0
                l(2) =   0
                l(3) =   1
                l(4) =   1
                l(5) =   2
                l(6) =   2
     Q(r) pseudized with 0 coefficients

     PseudoPot. # 3 for Au read from file:
     ./pseudo/Au.pbe-dn-kjpaw_psl.0.1.UPF
     MD5 check sum: 5c9b92683623e7ae2ab3f8e525febab6
     Pseudo is Projector augmented-wave + core cor, Zval = 11.0
     Generated using "atomic" code by A. Dal Corso v.5.0.2 svn rev. 9415
     Shape of augmentation charge: PSQ
     Using radial grid of 1279 points,  6 beta functions with:
                l(1) =   0
                l(2) =   0
                l(3) =   1
                l(4) =   1
                l(5) =   2
                l(6) =   2
     Q(r) pseudized with 0 coefficients

     atomic species   valence    mass     pseudopotential
        Mn1           15.00    54.93800     Mn( 1.00)
        Mn2           15.00    54.93800     Mn( 1.00)
        Au            11.00   196.96600     Au( 1.00)

     Starting magnetic structure
     atomic species   magnetization
        Mn1          0.800
        Mn2         -0.800
        Au           0.000

      4 Sym. Ops. (no inversion) found

   Cartesian axes

     site n.     atom                  positions (alat units)
         1           Mn1 tau(   1) = (   0.0000000   0.0000000   0.0000000  )
         2           Mn1 tau(   2) = (   0.0000000   0.3333300   0.0000000  )
         3           Mn1 tau(   3) = (   0.0000000   0.6666700   0.0000000  )
         4           Mn2 tau(   4) = (   0.3333300   0.0000000   0.0000000  )
         5           Mn2 tau(   5) = (   0.3333300   0.3333300   0.0000000  )
         6           Mn2 tau(   6) = (   0.3333300   0.6666700   0.0000000  )
         7           Mn1 tau(   7) = (   0.6666700   0.0000000   0.0000000  )
         8           Mn1 tau(   8) = (   0.6666700   0.3333300   0.0000000  )
         9           Mn1 tau(   9) = (   0.6666700   0.6666700   0.0000000  )
        10           Mn2 tau(  10) = (   0.1666700   0.1666700   0.4359871  )
        11           Mn2 tau(  11) = (   0.1666700   0.5000000   0.4359871  )
        12           Mn2 tau(  12) = (   0.1666700   0.8333300   0.4359871  )
        13           Mn1 tau(  13) = (   0.5000000   0.1666700   0.4359871  )
        14           Mn1 tau(  14) = (   0.5000000   0.5000000   0.4359871  )
        15           Mn1 tau(  15) = (   0.5000000   0.8333300   0.4359871  )
        16           Mn2 tau(  16) = (   0.8333300   0.1666700   0.4359871  )
        17           Mn2 tau(  17) = (   0.8333300   0.5000000   0.4359871  )
        18           Mn2 tau(  18) = (   0.8333300   0.8333300   0.4359871  )
        19           Au  tau(  19) = (   0.1666700   0.1666700   0.7327374  )
        20           Au  tau(  20) = (   0.1666700   0.5000000   0.7327374  )
        21           Au  tau(  21) = (   0.1666700   0.8333300   0.7327374  )
        22           Au  tau(  22) = (   0.5000000   0.1666700   0.7327374  )
        23           Au  tau(  23) = (   0.5000000   0.5000000   0.7327374  )
        24           Au  tau(  24) = (   0.5000000   0.8333300   0.7327374  )
        25           Au  tau(  25) = (   0.8333300   0.1666700   0.7327374  )
        26           Au  tau(  26) = (   0.8333300   0.5000000   0.7327374  )
        27           Au  tau(  27) = (   0.8333300   0.8333300   0.7327374  )
        28           Au  tau(  28) = (   0.1666700   0.1666700   0.1392369  )
        29           Au  tau(  29) = (   0.1666700   0.5000000   0.1392369  )
        30           Au  tau(  30) = (   0.1666700   0.8333300   0.1392369  )
        31           Au  tau(  31) = (   0.5000000   0.1666700   0.1392369  )
        32           Au  tau(  32) = (   0.5000000   0.5000000   0.1392369  )
        33           Au  tau(  33) = (   0.5000000   0.8333300   0.1392369  )
        34           Au  tau(  34) = (   0.8333300   0.1666700   0.1392369  )
        35           Au  tau(  35) = (   0.8333300   0.5000000   0.1392369  )
        36           Au  tau(  36) = (   0.8333300   0.8333300   0.1392369  )
        37           Au  tau(  37) = (   0.0000000   0.0000000   0.2967503  )
        38           Au  tau(  38) = (   0.0000000   0.3333300   0.2967503  )
        39           Au  tau(  39) = (   0.0000000   0.6666700   0.2967503  )
        40           Au  tau(  40) = (   0.3333300   0.0000000   0.2967503  )
        41           Au  tau(  41) = (   0.3333300   0.3333300   0.2967503  )
        42           Au  tau(  42) = (   0.3333300   0.6666700   0.2967503  )
        43           Au  tau(  43) = (   0.6666700   0.0000000   0.2967503  )
        44           Au  tau(  44) = (   0.6666700   0.3333300   0.2967503  )
        45           Au  tau(  45) = (   0.6666700   0.6666700   0.2967503  )
        46           Au  tau(  46) = (   0.0000000   0.0000000   0.5752240  )
        47           Au  tau(  47) = (   0.0000000   0.3333300   0.5752240  )
        48           Au  tau(  48) = (   0.0000000   0.6666700   0.5752240  )
        49           Au  tau(  49) = (   0.3333300   0.0000000   0.5752240  )
        50           Au  tau(  50) = (   0.3333300   0.3333300   0.5752240  )
        51           Au  tau(  51) = (   0.3333300   0.6666700   0.5752240  )
        52           Au  tau(  52) = (   0.6666700   0.0000000   0.5752240  )
        53           Au  tau(  53) = (   0.6666700   0.3333300   0.5752240  )
        54           Au  tau(  54) = (   0.6666700   0.6666700   0.5752240  )

     number of k points=     8 (tetrahedron method)
                       cart. coord. in units 2pi/alat
        k(    1) = (   0.0000000   0.0000000   0.0000000), wk =   0.1250000
        k(    2) = (   0.0000000   0.0000000  -0.5734114), wk =   0.1250000
        k(    3) = (   0.0000000  -0.5000000   0.0000000), wk =   0.1250000
        k(    4) = (   0.0000000  -0.5000000  -0.5734114), wk =   0.1250000
        k(    5) = (  -0.5000000  -0.5000000   0.0000000), wk =   0.1250000
        k(    6) = (  -0.5000000  -0.5000000  -0.5734114), wk =   0.1250000
        k(    7) = (  -0.5000000   0.0000000   0.0000000), wk =   0.1250000
        k(    8) = (  -0.5000000   0.0000000   0.5734114), wk =   0.1250000

     Check: negative/imaginary core charge=   -0.000006    0.000000

     Initial potential from superposition of free atoms

     starting charge  665.98709, renormalised to  666.00000
     Starting wfc are  504 randomized atomic wfcs
     Checking if some PAW data can be deallocated...

     Self-consistent Calculation

     iteration #  1     ecut=    45.00 Ry     beta= 0.10
     Davidson diagonalization with overlap
     ethr =  1.00E-02,  avg # of iterations =  3.6

     total energy              =  -33047.15750967 Ry
     Harris-Foulkes estimate   =  -33044.00046626 Ry
     estimated scf accuracy    <      27.06460554 Ry

     total magnetization       =    -0.00 Bohr mag/cell
     absolute magnetization    =    92.14 Bohr mag/cell

[...]

     total energy              =  -33062.60091776 Ry
     Harris-Foulkes estimate   =  -33062.60091789 Ry
     estimated scf accuracy    <       0.00000988 Ry

[...]

     iteration # 83     ecut=    45.00 Ry     beta= 0.10
     Davidson diagonalization with overlap
     ethr =  2.05E-10,  avg # of iterations =  1.0

     Magnetic moment per site:
     atom:    1    charge:   13.5703    magn:    4.0614    constr:    0.0000
     atom:    2    charge:   13.5689    magn:    4.0703    constr:    0.0000
     atom:    3    charge:   13.5689    magn:    4.0703    constr:    0.0000
     atom:    4    charge:   13.5756    magn:   -4.0165    constr:    0.0000
     atom:    5    charge:   13.5762    magn:   -4.0078    constr:    0.0000
     atom:    6    charge:   13.5762    magn:   -4.0078    constr:    0.0000
     atom:    7    charge:   13.5808    magn:    3.9577    constr:    0.0000
     atom:    8    charge:   13.5811    magn:    3.9552    constr:    0.0000
     atom:    9    charge:   13.5811    magn:    3.9552    constr:    0.0000
     atom:   10    charge:   13.5814    magn:   -3.9562    constr:    0.0000
     atom:   11    charge:   13.5805    magn:   -3.9558    constr:    0.0000
     atom:   12    charge:   13.5814    magn:   -3.9562    constr:    0.0000
     atom:   13    charge:   13.5757    magn:    4.0138    constr:    0.0000
     atom:   14    charge:   13.5765    magn:    4.0045    constr:    0.0000
     atom:   15    charge:   13.5757    magn:    4.0138    constr:    0.0000
     atom:   16    charge:   13.5698    magn:   -4.0643    constr:    0.0000
     atom:   17    charge:   13.5686    magn:   -4.0732    constr:    0.0000
     atom:   18    charge:   13.5698    magn:   -4.0643    constr:    0.0000
     atom:   19    charge:    9.1221    magn:   -0.0068    constr:    0.0000
     atom:   20    charge:    9.1218    magn:   -0.0053    constr:    0.0000
     atom:   21    charge:    9.1221    magn:   -0.0068    constr:    0.0000
     atom:   22    charge:    9.1201    magn:    0.0085    constr:    0.0000
     atom:   23    charge:    9.1199    magn:    0.0100    constr:    0.0000
     atom:   24    charge:    9.1201    magn:    0.0085    constr:    0.0000
     atom:   25    charge:    9.1209    magn:    0.0471    constr:    0.0000
     atom:   26    charge:    9.1209    magn:    0.0477    constr:    0.0000
     atom:   27    charge:    9.1209    magn:    0.0471    constr:    0.0000
     atom:   28    charge:    9.1221    magn:   -0.0068    constr:    0.0000
     atom:   29    charge:    9.1218    magn:   -0.0053    constr:    0.0000
     atom:   30    charge:    9.1221    magn:   -0.0068    constr:    0.0000
     atom:   31    charge:    9.1201    magn:    0.0085    constr:    0.0000
     atom:   32    charge:    9.1199    magn:    0.0100    constr:    0.0000
     atom:   33    charge:    9.1201    magn:    0.0085    constr:    0.0000
     atom:   34    charge:    9.1209    magn:    0.0471    constr:    0.0000
     atom:   35    charge:    9.1209    magn:    0.0477    constr:    0.0000
     atom:   36    charge:    9.1209    magn:    0.0471    constr:    0.0000
     atom:   37    charge:    9.1211    magn:   -0.0465    constr:    0.0000
     atom:   38    charge:    9.1209    magn:   -0.0477    constr:    0.0000
     atom:   39    charge:    9.1209    magn:   -0.0477    constr:    0.0000
     atom:   40    charge:    9.1203    magn:   -0.0077    constr:    0.0000
     atom:   41    charge:    9.1199    magn:   -0.0096    constr:    0.0000
     atom:   42    charge:    9.1199    magn:   -0.0096    constr:    0.0000
     atom:   43    charge:    9.1223    magn:    0.0079    constr:    0.0000
     atom:   44    charge:    9.1218    magn:    0.0054    constr:    0.0000
     atom:   45    charge:    9.1218    magn:    0.0054    constr:    0.0000
     atom:   46    charge:    9.1211    magn:   -0.0465    constr:    0.0000
     atom:   47    charge:    9.1209    magn:   -0.0477    constr:    0.0000
     atom:   48    charge:    9.1209    magn:   -0.0477    constr:    0.0000
     atom:   49    charge:    9.1203    magn:   -0.0077    constr:    0.0000
     atom:   50    charge:    9.1199    magn:   -0.0096    constr:    0.0000
     atom:   51    charge:    9.1199    magn:   -0.0096    constr:    0.0000
     atom:   52    charge:    9.1223    magn:    0.0079    constr:    0.0000
     atom:   53    charge:    9.1218    magn:    0.0054    constr:    0.0000
     atom:   54    charge:    9.1218    magn:    0.0054    constr:    0.0000

     End of self-consistent calculation

 ------ SPIN UP ------------

          k = 0.0000 0.0000 0.0000 ( 31747 PWs)   bands (ev):

   -66.7844 -66.7841 -66.7717 -66.6756 -66.6753 -66.6658 -66.6130 -66.6105
   -66.6102 -62.4010 -62.3997 -62.3994 -62.3564 -62.3560 -62.3545 -62.3437
   -62.3433 -62.3421 -35.5414 -35.5409 -35.5371 -35.5364 -35.5323 -35.5152
   -35.5044 -35.5039 -35.4898 -35.4430 -35.4425 -35.4405 -35.4136 -35.4092
   -35.4046 -35.4039 -35.3936 -35.3933 -35.3613 -35.3610 -35.3578 -35.3540
   -35.3538 -35.3535 -35.3528 -35.3508 -35.3500 -31.2375 -31.2371 -31.2271
   -31.2263 -31.2258 -31.2252 -31.2170 -31.2148 -31.2143 -31.1881 -31.1874
   -31.1857 -31.1854 -31.1843 -31.1817 -31.1806 -31.1764 -31.1758 -31.1754
   -31.1745 -31.1745 -31.1744 -31.1737 -31.1699 -31.1513 -31.1505 -31.1502
     5.6143   7.1419   7.1788   7.1791   7.2117   7.3645   7.8640   7.8646
     7.9355   7.9365   8.0635   8.1332   8.1389   8.1392   8.2024   8.2294
     8.2768   8.2769   8.3265   8.5268   8.5279   8.5603   8.5924   8.5931
     8.5985   8.8440   8.8655   8.8781   8.8784   8.8860   8.8867   8.8894
     8.9125   8.9131   8.9153   8.9241   8.9241   8.9486   8.9490   8.9829
     9.0153   9.0847   9.1201   9.1202   9.1318   9.1323   9.1603   9.1698
     9.1698   9.2118   9.2124   9.2703   9.2714   9.3067   9.3073   9.3365
     9.3503   9.3612   9.3617   9.3770   9.3770   9.4127   9.4136   9.4280
     9.4280   9.4471   9.4474   9.4547   9.4580   9.4581   9.5150   9.5599
     9.5788   9.5853   9.5859   9.5909   9.6440   9.6443   9.6701   9.6707
     9.6759   9.6760   9.7038   9.7450   9.7454   9.7974   9.7978   9.8503
     9.8514   9.8982   9.9253   9.9254   9.9565   9.9690  10.0331  10.0479
    10.1116  10.1135  10.1367  10.1370  10.2948  10.2956  10.2967  10.2973
    10.3023  10.3029  10.3030  10.3083  10.3086  10.3161  10.3161  10.3479
    10.3534  10.3540  10.3575  10.3596  10.3601  10.3654  10.3848  10.3973
    10.3973  10.5212  10.5215  10.5844  10.6133  10.6139  10.6212  10.6215
    10.7345  10.7366  10.7861  10.7878  10.8257  10.8260  10.8291  10.8475
    10.8481  10.8502  10.8616  10.8623  10.8776  10.8840  10.8852  10.8857
    10.9152  10.9153  10.9927  11.0561  11.0562  11.1171  11.2198  11.2246
    11.2253  11.2274  11.2633  11.3163  11.3167  11.3403  11.3408  11.3505
    11.3573  11.3581  11.3763  11.3768  11.3943  11.3949  11.4033  11.4126
    11.4198  11.4681  11.4707  11.5375  11.5928  11.5931  11.5967  11.5971
    11.6601  11.6604  11.7244  11.7377  11.7379  11.7551  11.7813  11.8323
    11.8328  11.8716  11.8747  11.8750  11.9023  11.9366  11.9376  11.9480
    11.9855  11.9868  12.0623  12.1015  12.1045  12.1046  12.1050  12.1450
    12.1451  12.1495  12.1496  12.1643  12.1651  12.1742  12.1801  12.2034
    12.2421  12.2471  12.2478  12.3240  12.3256  12.3522  12.4115  12.4116
    12.4300  12.4354  12.4429  12.4485  12.4899  12.4912  12.4996  12.5198
    12.5238  12.5300  12.5318  12.5652  12.5661  12.5860  12.5860  12.6503
    12.6946  12.6976  12.7578  12.7629  12.7631  12.8012  13.0875  13.1215
    13.1221  13.1763  13.2285  13.3768  13.3773  13.3795  13.7245  13.7257
    13.9356  13.9359  14.2231  14.2918  14.3191  14.3204  14.4498  14.4548
    14.7410  14.7417  14.9514  14.9547  15.1556  15.1622  15.1635  15.1884
    15.1907  15.2660  15.2682  15.4489  15.4495  15.4818  15.4829  15.6124
    15.6938  15.6949  15.7085  15.7936  15.7952  15.8396  15.8734  15.9476
    16.0128  16.0659  16.1098  16.1121  16.1434  16.1438  16.1785  16.1801
    16.2902  16.3093  16.3109  16.3444  16.3474  16.3574  16.3856  16.3868
    16.4445  16.4480  16.4506  16.5207  16.5217  16.7240  16.7257  16.9619
    16.9639  17.0252  17.0616  17.1332  17.2338  17.2355  17.2571  17.4031
    17.4053  17.5739  17.8899  17.9130  17.9143  17.9536  17.9545  18.2017
    18.2030  18.3409  18.3433  18.9279  19.0693  19.0722  19.0882  19.0890

[...]

          k =-0.5000-0.5000 0.0000 ( 31612 PWs)   bands (ev):

[...]

 ------ SPIN DOWN ----------

[...]

          k = 0.0000-0.5000-0.5734 ( 31696 PWs)   bands (ev):

[...]

          k =-0.5000 0.0000 0.5734 ( 31696 PWs)   bands (ev):

   -66.7884 -66.7759 -66.7756 -66.6785 -66.6692 -66.6689 -66.6121 -66.6118
   -66.6098 -62.4007 -62.4003 -62.3992 -62.3567 -62.3553 -62.3549 -62.3441
   -62.3427 -62.3423 -35.5428 -35.5409 -35.5381 -35.5377 -35.5251 -35.5185
   -35.5089 -35.4948 -35.4944 -35.4434 -35.4414 -35.4411 -35.4162 -35.4083
   -35.4034 -35.3983 -35.3969 -35.3949 -35.3613 -35.3610 -35.3565 -35.3561
   -35.3532 -35.3527 -35.3526 -35.3514 -35.3501 -31.2375 -31.2372 -31.2269
   -31.2265 -31.2259 -31.2252 -31.2165 -31.2158 -31.2138 -31.1884 -31.1866
   -31.1861 -31.1855 -31.1842 -31.1818 -31.1805 -31.1769 -31.1754 -31.1751
   -31.1748 -31.1745 -31.1744 -31.1737 -31.1698 -31.1514 -31.1505 -31.1501
     6.4954   6.5578   6.6185   6.6679   7.8237   7.8238   7.8742   7.8754
     7.9082   7.9088   7.9449   7.9461   8.2651   8.2812   8.2990   8.3027
     8.5209   8.5212   8.5309   8.5330   8.6729   8.6740   8.6828   8.6836
     8.6839   8.6848   8.7247   8.7268   8.7273   8.7309   8.7462   8.7474
     8.7659   8.7726   8.7830   8.7830   8.9281   8.9799   9.0239   9.0360
     9.0361   9.0583   9.0598   9.0778   9.1511   9.2077   9.2080   9.2089
     9.2346   9.2351   9.2355   9.2357   9.2416   9.2429   9.2512   9.2514
     9.2606   9.2647   9.2650   9.2656   9.2856   9.3836   9.3842   9.3945
     9.4296   9.4300   9.4525   9.4536   9.4589   9.4674   9.4798   9.4808
     9.5031   9.5033   9.5205   9.5213   9.5409   9.5419   9.5665   9.5674
     9.5686   9.6204   9.7524   9.7582   9.7931   9.7940   9.8189   9.8297
     9.8299   9.8304   9.8314   9.8377   9.8525   9.8659   9.8800   9.8804
     9.9419   9.9570  10.0235  10.0244  10.0315  10.0396  10.0406  10.0616
    10.3545  10.3548  10.3767  10.3841  10.3848  10.3973  10.4350  10.4359
    10.4454  10.4558  10.4584  10.4592  10.4751  10.4765  10.5412  10.5421
    10.5432  10.5435  10.5551  10.5702  10.6028  10.6029  10.6345  10.6591
    10.6758  10.6759  10.6782  10.6793  10.7070  10.7077  10.7078  10.7289
    10.7294  10.8137  10.8166  10.8507  10.9866  10.9867  11.0141  11.0143
    11.1168  11.1174  11.1818  11.1828  11.1895  11.1900  11.1944  11.1954
    11.2120  11.2140  11.3234  11.3262  11.3285  11.3461  11.3687  11.3696
    11.3783  11.3860  11.4444  11.4454  11.4492  11.4528  11.4637  11.5081
    11.5687  11.5699  11.5700  11.5708  11.5852  11.5852  11.6147  11.6310
    11.6318  11.6353  11.7331  11.7339  11.7529  11.7550  11.7773  11.7779
    11.8978  11.9025  11.9530  11.9714  11.9726  11.9974  11.9991  12.0115
    12.0127  12.0127  12.0138  12.0357  12.0385  12.0391  12.0403  12.1129
    12.1953  12.1975  12.2357  12.2392  12.2677  12.2911  12.2912  12.3339
    12.3342  12.3959  12.3962  12.4006  12.4198  12.4239  12.4248  12.4418
    12.4471  12.4747  12.4750  12.4974  12.5098  12.5282  12.5315  12.6336
    12.6343  12.6404  12.6564  12.6565  12.6579  12.6734  12.7146  12.8359
    12.8731  12.8741  12.9320  12.9321  12.9461  13.0166  13.0395  13.1966
    13.2075  13.2091  13.2940  13.3324  13.5668  13.5683  13.6208  13.9116
    13.9308  13.9315  14.0141  14.0142  14.1414  14.1859  14.1871  14.3627
    14.3634  14.5434  14.5660  14.7346  14.7377  14.7388  14.7416  15.1226
    15.1249  15.2051  15.2070  15.4074  15.4098  15.4665  15.4689  15.4698
    15.4951  15.6433  15.6726  15.6739  15.7759  15.8662  15.8673  16.0147
    16.0636  16.0911  16.0971  16.1833  16.1857  16.1892  16.1919  16.2236
    16.3049  16.3069  16.3106  16.3441  16.3459  16.3830  16.3844  16.4331
    16.4530  16.5631  16.6022  16.6112  16.6131  16.6513  16.6522  16.6667
    16.8099  16.8121  16.8494  16.8513  16.8787  16.8808  16.9565  16.9592
    17.0773  17.0794  17.2461  17.2480  18.6628  18.6890  18.6901  18.7326
    18.7779  18.7781  18.8318  18.8339  18.8565  18.8587  18.9440  18.9711

     the Fermi energy is    14.8446 ev

!    total energy              =  -33062.60091732 Ry
     Harris-Foulkes estimate   =  -33062.60091776 Ry
     estimated scf accuracy    <       0.00000087 Ry

     total all-electron energy =  -1410574.691292 Ry

     The total energy is the sum of the following terms:

     one-electron contribution =   -1645.62099697 Ry
     hartree contribution      =    1489.84711829 Ry
     xc contribution           =   -1658.75179767 Ry
     ewald contribution        =   -4919.25534656 Ry
     one-center paw contrib.   =  -26328.81989442 Ry

     total magnetization       =     0.00 Bohr mag/cell
     absolute magnetization    =    78.88 Bohr mag/cell

     convergence has been achieved in  83 iterations

     Writing output data file mnau2.save

     General routines

     Parallel routines

   This run was terminated on:   7:42:36   6Mar2019

   JOB DONE.