     Program PWSCF v.6.2 (svn rev. 14038) starts on  6Mar2019 at  9:33:44

     R & G space division:  proc/nbgrp/npool/nimage =      16
     Waiting for input...
     Reading input from standard input

     Current dimensions of program PWSCF are:
     Max number of different atomic species (ntypx) = 10
     Max number of k-points (npk) =  40000
     Max angular momentum in pseudopotentials (lmaxx) =  3
               file Mn.pbe-spn-kjpaw_psl.0.3.1.UPF: wavefunction(s)  3P 3D renormalized
               file Mn.pbe-spn-kjpaw_psl.0.3.1.UPF: wavefunction(s)  3P 3D renormalized
               file Au.pbe-dn-kjpaw_psl.0.1.UPF: wavefunction(s)  6S 6P 5D renormalized

     Subspace diagonalization in iterative solution of the eigenvalue problem:
     a serial algorithm will be used

     bravais-lattice index     =            0
     lattice parameter (alat)  =      19.2459  a.u.
     unit-cell volume          =    6216.1497 (a.u.)^3
     number of atoms/cell      =           54
     number of atomic types    =            3
     number of electrons       =       666.00
     number of Kohn-Sham states=          400
     kinetic-energy cutoff     =      45.0000  Ry
     charge density cutoff     =     400.0000  Ry
     convergence threshold     =      1.0E-06
     mixing beta               =       0.1000
     number of iterations used =            8  plain     mixing
     Exchange-correlation      = SLA PW PBX PBC ( 1  4  3  4 0 0)

     celldm(1)=  19.245946  celldm(2)=   0.000000  celldm(3)=   0.000000
     celldm(4)=   0.000000  celldm(5)=   0.000000  celldm(6)=   0.000000

     crystal axes: (cart. coord. in units of alat)
               a(1) = (   1.000000   0.000000   0.000000 )
               a(2) = (   0.000000   1.000000   0.000000 )
               a(3) = (   0.000000   0.000000   0.871974 )

     reciprocal axes: (cart. coord. in units 2 pi/alat)
               b(1) = (  1.000000  0.000000  0.000000 )
               b(2) = (  0.000000  1.000000  0.000000 )
               b(3) = (  0.000000  0.000000  1.146823 )

     PseudoPot. # 1 for Mn read from file:
     ./pseudo/Mn.pbe-spn-kjpaw_psl.0.3.1.UPF
     MD5 check sum: 7eef95dd2aae66803482eea66ebeebf1
     Pseudo is Projector augmented-wave + core cor, Zval = 15.0
     Generated using "atomic" code by A. Dal Corso v.5.0.99 svn rev. 10869
     Shape of augmentation charge: PSQ
     Using radial grid of 1187 points,  6 beta functions with:
                l(1) =   0
                l(2) =   0
                l(3) =   1
                l(4) =   1
                l(5) =   2
                l(6) =   2
     Q(r) pseudized with 0 coefficients

     PseudoPot. # 2 for Mn read from file:
     ./pseudo/Mn.pbe-spn-kjpaw_psl.0.3.1.UPF
     MD5 check sum: 7eef95dd2aae66803482eea66ebeebf1
     Pseudo is Projector augmented-wave + core cor, Zval = 15.0
     Generated using "atomic" code by A. Dal Corso v.5.0.99 svn rev. 10869
     Shape of augmentation charge: PSQ
     Using radial grid of 1187 points,  6 beta functions with:
                l(1) =   0
                l(2) =   0
                l(3) =   1
                l(4) =   1
                l(5) =   2
                l(6) =   2
     Q(r) pseudized with 0 coefficients

     PseudoPot. # 3 for Au read from file:
     ./pseudo/Au.pbe-dn-kjpaw_psl.0.1.UPF
     MD5 check sum: 5c9b92683623e7ae2ab3f8e525febab6
     Pseudo is Projector augmented-wave + core cor, Zval = 11.0
     Generated using "atomic" code by A. Dal Corso v.5.0.2 svn rev. 9415
     Shape of augmentation charge: PSQ
     Using radial grid of 1279 points,  6 beta functions with:
                l(1) =   0
                l(2) =   0
                l(3) =   1
                l(4) =   1
                l(5) =   2
                l(6) =   2
     Q(r) pseudized with 0 coefficients

     atomic species   valence    mass     pseudopotential
        Mn1           15.00    54.93800     Mn( 1.00)
        Mn2           15.00    54.93800     Mn( 1.00)
        Au            11.00   196.96600     Au( 1.00)

     Starting magnetic structure
     atomic species   magnetization
        Mn1          0.800
        Mn2         -0.800
        Au           0.000

      2 Sym. Ops. (no inversion) found

   Cartesian axes

     site n.     atom                  positions (alat units)
         1           Mn1 tau(   1) = (   0.0000000   0.0000000   0.0000000  )
         2           Mn1 tau(   2) = (   0.0000000   0.3333300   0.0000000  )
         3           Mn1 tau(   3) = (   0.0000000   0.6666700   0.0000000  )
         4           Mn2 tau(   4) = (   0.3333300   0.0000000   0.0000000  )
         5           Mn2 tau(   5) = (   0.3333300   0.3333300   0.0000000  )
         6           Mn2 tau(   6) = (   0.3333300   0.6666700   0.0000000  )
         7           Mn1 tau(   7) = (   0.6666700   0.0000000   0.0000000  )
         8           Mn2 tau(   8) = (   0.6666700   0.3333300   0.0000000  )
         9           Mn2 tau(   9) = (   0.6666700   0.6666700   0.0000000  )
        10           Mn2 tau(  10) = (   0.1666700   0.1666700   0.4359871  )
        11           Mn2 tau(  11) = (   0.1666700   0.5000000   0.4359871  )
        12           Mn2 tau(  12) = (   0.1666700   0.8333300   0.4359871  )
        13           Mn1 tau(  13) = (   0.5000000   0.1666700   0.4359871  )
        14           Mn1 tau(  14) = (   0.5000000   0.5000000   0.4359871  )
        15           Mn1 tau(  15) = (   0.5000000   0.8333300   0.4359871  )
        16           Mn2 tau(  16) = (   0.8333300   0.1666700   0.4359871  )
        17           Mn1 tau(  17) = (   0.8333300   0.5000000   0.4359871  )
        18           Mn1 tau(  18) = (   0.8333300   0.8333300   0.4359871  )
        19           Au  tau(  19) = (   0.1666700   0.1666700   0.7327374  )
        20           Au  tau(  20) = (   0.1666700   0.5000000   0.7327374  )
        21           Au  tau(  21) = (   0.1666700   0.8333300   0.7327374  )
        22           Au  tau(  22) = (   0.5000000   0.1666700   0.7327374  )
        23           Au  tau(  23) = (   0.5000000   0.5000000   0.7327374  )
        24           Au  tau(  24) = (   0.5000000   0.8333300   0.7327374  )
        25           Au  tau(  25) = (   0.8333300   0.1666700   0.7327374  )
        26           Au  tau(  26) = (   0.8333300   0.5000000   0.7327374  )
        27           Au  tau(  27) = (   0.8333300   0.8333300   0.7327374  )
        28           Au  tau(  28) = (   0.1666700   0.1666700   0.1392369  )
        29           Au  tau(  29) = (   0.1666700   0.5000000   0.1392369  )
        30           Au  tau(  30) = (   0.1666700   0.8333300   0.1392369  )
        31           Au  tau(  31) = (   0.5000000   0.1666700   0.1392369  )
        32           Au  tau(  32) = (   0.5000000   0.5000000   0.1392369  )
        33           Au  tau(  33) = (   0.5000000   0.8333300   0.1392369  )
        34           Au  tau(  34) = (   0.8333300   0.1666700   0.1392369  )
        35           Au  tau(  35) = (   0.8333300   0.5000000   0.1392369  )
        36           Au  tau(  36) = (   0.8333300   0.8333300   0.1392369  )
        37           Au  tau(  37) = (   0.0000000   0.0000000   0.2967503  )
        38           Au  tau(  38) = (   0.0000000   0.3333300   0.2967503  )
        39           Au  tau(  39) = (   0.0000000   0.6666700   0.2967503  )
        40           Au  tau(  40) = (   0.3333300   0.0000000   0.2967503  )
        41           Au  tau(  41) = (   0.3333300   0.3333300   0.2967503  )
        42           Au  tau(  42) = (   0.3333300   0.6666700   0.2967503  )
        43           Au  tau(  43) = (   0.6666700   0.0000000   0.2967503  )
        44           Au  tau(  44) = (   0.6666700   0.3333300   0.2967503  )
        45           Au  tau(  45) = (   0.6666700   0.6666700   0.2967503  )
        46           Au  tau(  46) = (   0.0000000   0.0000000   0.5752240  )
        47           Au  tau(  47) = (   0.0000000   0.3333300   0.5752240  )
        48           Au  tau(  48) = (   0.0000000   0.6666700   0.5752240  )
        49           Au  tau(  49) = (   0.3333300   0.0000000   0.5752240  )
        50           Au  tau(  50) = (   0.3333300   0.3333300   0.5752240  )
        51           Au  tau(  51) = (   0.3333300   0.6666700   0.5752240  )
        52           Au  tau(  52) = (   0.6666700   0.0000000   0.5752240  )
        53           Au  tau(  53) = (   0.6666700   0.3333300   0.5752240  )
        54           Au  tau(  54) = (   0.6666700   0.6666700   0.5752240  )

     number of k points=     8 (tetrahedron method)
                       cart. coord. in units 2pi/alat
        k(    1) = (   0.0000000   0.0000000   0.0000000), wk =   0.1250000
        k(    2) = (   0.0000000   0.0000000  -0.5734114), wk =   0.1250000
        k(    3) = (   0.0000000  -0.5000000   0.0000000), wk =   0.1250000
        k(    4) = (   0.0000000  -0.5000000  -0.5734114), wk =   0.1250000
        k(    5) = (  -0.5000000  -0.5000000   0.0000000), wk =   0.1250000
        k(    6) = (  -0.5000000  -0.5000000  -0.5734114), wk =   0.1250000
        k(    7) = (  -0.5000000   0.0000000   0.0000000), wk =   0.1250000
        k(    8) = (  -0.5000000   0.0000000   0.5734114), wk =   0.1250000

     Check: negative/imaginary core charge=   -0.000006    0.000000

     Initial potential from superposition of free atoms

     starting charge  665.98709, renormalised to  666.00000
     Starting wfc are  504 randomized atomic wfcs
     Checking if some PAW data can be deallocated...

     Self-consistent Calculation

     iteration #  1     ecut=    45.00 Ry     beta= 0.10
     Davidson diagonalization with overlap
     ethr =  1.00E-02,  avg # of iterations =  3.4

     total energy              =  -33047.18673151 Ry
     Harris-Foulkes estimate   =  -33044.03710725 Ry
     estimated scf accuracy    <      27.02785855 Ry

     total magnetization       =    -0.02 Bohr mag/cell
     absolute magnetization    =    92.13 Bohr mag/cell

[...]

     total energy              =  -33062.59189011 Ry
     Harris-Foulkes estimate   =  -33062.59188531 Ry
     estimated scf accuracy    <       0.00000100 Ry

[...]

     iteration # 21     ecut=    45.00 Ry     beta= 0.10
     Davidson diagonalization with overlap
     ethr =  1.50E-10,  avg # of iterations =  2.6

     Magnetic moment per site:
     atom:    1    charge:   13.5714    magn:    4.0343    constr:    0.0000
     atom:    2    charge:   13.5725    magn:    4.0432    constr:    0.0000
     atom:    3    charge:   13.5732    magn:    4.0316    constr:    0.0000
     atom:    4    charge:   13.5835    magn:   -3.9334    constr:    0.0000
     atom:    5    charge:   13.5827    magn:   -3.9383    constr:    0.0000
     atom:    6    charge:   13.5754    magn:   -3.9983    constr:    0.0000
     atom:    7    charge:   13.5825    magn:    3.9789    constr:    0.0000
     atom:    8    charge:   13.5727    magn:   -4.0464    constr:    0.0000
     atom:    9    charge:   13.5691    magn:   -4.0570    constr:    0.0000
     atom:   10    charge:   13.5791    magn:   -3.9557    constr:    0.0000
     atom:   11    charge:   13.5817    magn:   -3.9517    constr:    0.0000
     atom:   12    charge:   13.5767    magn:   -3.9927    constr:    0.0000
     atom:   13    charge:   13.5724    magn:    4.0417    constr:    0.0000
     atom:   14    charge:   13.5684    magn:    4.0633    constr:    0.0000
     atom:   15    charge:   13.5704    magn:    4.0501    constr:    0.0000
     atom:   16    charge:   13.5728    magn:   -4.0719    constr:    0.0000
     atom:   17    charge:   13.5805    magn:    3.9869    constr:    0.0000
     atom:   18    charge:   13.5837    magn:    3.9541    constr:    0.0000
     atom:   19    charge:    9.1207    magn:   -0.0083    constr:    0.0000
     atom:   20    charge:    9.1204    magn:   -0.0046    constr:    0.0000
     atom:   21    charge:    9.1204    magn:   -0.0089    constr:    0.0000
     atom:   22    charge:    9.1204    magn:   -0.0107    constr:    0.0000
     atom:   23    charge:    9.1217    magn:   -0.0461    constr:    0.0000
     atom:   24    charge:    9.1203    magn:   -0.0118    constr:    0.0000
     atom:   25    charge:    9.1218    magn:    0.0200    constr:    0.0000
     atom:   26    charge:    9.1209    magn:    0.0104    constr:    0.0000
     atom:   27    charge:    9.1202    magn:    0.0404    constr:    0.0000
     atom:   28    charge:    9.1207    magn:   -0.0083    constr:    0.0000
     atom:   29    charge:    9.1204    magn:   -0.0046    constr:    0.0000
     atom:   30    charge:    9.1204    magn:   -0.0089    constr:    0.0000
     atom:   31    charge:    9.1204    magn:   -0.0107    constr:    0.0000
     atom:   32    charge:    9.1217    magn:   -0.0461    constr:    0.0000
     atom:   33    charge:    9.1203    magn:   -0.0118    constr:    0.0000
     atom:   34    charge:    9.1218    magn:    0.0200    constr:    0.0000
     atom:   35    charge:    9.1209    magn:    0.0104    constr:    0.0000
     atom:   36    charge:    9.1202    magn:    0.0404    constr:    0.0000
     atom:   37    charge:    9.1213    magn:   -0.0125    constr:    0.0000
     atom:   38    charge:    9.1214    magn:   -0.0123    constr:    0.0000
     atom:   39    charge:    9.1196    magn:    0.0146    constr:    0.0000
     atom:   40    charge:    9.1203    magn:   -0.0015    constr:    0.0000
     atom:   41    charge:    9.1205    magn:   -0.0047    constr:    0.0000
     atom:   42    charge:    9.1210    magn:   -0.0092    constr:    0.0000
     atom:   43    charge:    9.1202    magn:    0.0373    constr:    0.0000
     atom:   44    charge:    9.1218    magn:    0.0202    constr:    0.0000
     atom:   45    charge:    9.1211    magn:    0.0516    constr:    0.0000
     atom:   46    charge:    9.1213    magn:   -0.0125    constr:    0.0000
     atom:   47    charge:    9.1214    magn:   -0.0123    constr:    0.0000
     atom:   48    charge:    9.1196    magn:    0.0146    constr:    0.0000
     atom:   49    charge:    9.1203    magn:   -0.0015    constr:    0.0000
     atom:   50    charge:    9.1205    magn:   -0.0047    constr:    0.0000
     atom:   51    charge:    9.1210    magn:   -0.0092    constr:    0.0000
     atom:   52    charge:    9.1202    magn:    0.0373    constr:    0.0000
     atom:   53    charge:    9.1218    magn:    0.0202    constr:    0.0000
     atom:   54    charge:    9.1211    magn:    0.0516    constr:    0.0000

     End of self-consistent calculation

 ------ SPIN UP ------------

          k = 0.0000 0.0000 0.0000 ( 31747 PWs)   bands (ev):

   -66.7849 -66.7635 -66.7436 -66.7395 -66.7310 -66.7267 -66.6116 -66.5821
   -66.5561 -62.4025 -62.3830 -62.3728 -62.3695 -62.3682 -62.3586 -62.3563
   -62.3442 -62.3233 -35.5369 -35.5318 -35.5266 -35.5154 -35.5094 -35.5068
   -35.5049 -35.4954 -35.4894 -35.4876 -35.4829 -35.4807 -35.4796 -35.4758
   -35.4618 -35.4555 -35.4507 -35.4433 -35.3660 -35.3558 -35.3542 -35.3483
   -35.3308 -35.3185 -35.3074 -35.2890 -35.2837 -31.2405 -31.2307 -31.2222
   -31.2155 -31.2133 -31.2132 -31.2085 -31.2058 -31.2045 -31.2013 -31.2005
   -31.1970 -31.1914 -31.1866 -31.1854 -31.1842 -31.1836 -31.1808 -31.1800
   -31.1784 -31.1724 -31.1615 -31.1601 -31.1561 -31.1495 -31.1472 -31.1432
     5.6118   7.1371   7.1671   7.1862   7.2101   7.3614   7.8596   7.8618
     7.9137   7.9494   8.0719   8.1039   8.1353   8.1637   8.1960   8.2314
     8.2606   8.2883   8.3191   8.5213   8.5318   8.5592   8.5722   8.5930
     8.6078   8.8404   8.8641   8.8644   8.8797   8.8836   8.8880   8.9032
     8.9066   8.9074   8.9140   8.9177   8.9263   8.9492   8.9539   8.9787
     8.9949   9.0822   9.1170   9.1197   9.1225   9.1307   9.1577   9.1621
     9.1784   9.2010   9.2146   9.2674   9.2738   9.3013   9.3137   9.3336
     9.3462   9.3523   9.3646   9.3671   9.3827   9.3863   9.4020   9.4254
     9.4399   9.4412   9.4458   9.4487   9.4532   9.4651   9.5086   9.5659
     9.5745   9.5811   9.5846   9.5879   9.6210   9.6631   9.6676   9.6715
     9.6725   9.6747   9.7059   9.7370   9.7571   9.7799   9.7982   9.8493
     9.8499   9.8929   9.9098   9.9285   9.9521   9.9577  10.0188  10.0392
    10.0933  10.1200  10.1300  10.1568  10.2907  10.2918  10.2931  10.2950
    10.2973  10.2987  10.3017  10.3083  10.3099  10.3233  10.3277  10.3423
    10.3479  10.3497  10.3525  10.3546  10.3550  10.3724  10.3822  10.3823
    10.3995  10.5186  10.5195  10.5731  10.6084  10.6094  10.6307  10.6356
    10.6914  10.7609  10.7838  10.7852  10.7896  10.8212  10.8291  10.8378
    10.8426  10.8526  10.8629  10.8684  10.8721  10.8756  10.8796  10.8951
    10.9002  10.9200  10.9971  11.0374  11.0727  11.1080  11.2015  11.2178
    11.2223  11.2272  11.2552  11.2573  11.2791  11.2939  11.3358  11.3383
    11.3642  11.3650  11.3832  11.3899  11.3992  11.4032  11.4079  11.4113
    11.4183  11.4528  11.5869  11.5874  11.5889  11.5951  11.5979  11.6070
    11.6279  11.6707  11.7204  11.7268  11.7318  11.7398  11.7552  11.7860
    11.8319  11.8477  11.8597  11.8687  11.8768  11.8988  11.9324  11.9375
    11.9629  12.0576  12.0981  12.1007  12.1015  12.1028  12.1041  12.1389
    12.1414  12.1438  12.1441  12.1483  12.1524  12.1717  12.1916  12.2176
    12.2456  12.2592  12.3193  12.3207  12.3445  12.3482  12.3657  12.4033
    12.4055  12.4228  12.4340  12.4341  12.4585  12.4804  12.4872  12.4890
    12.5025  12.5197  12.5282  12.5483  12.5732  12.5822  12.5974  12.6250
    12.6814  12.7031  12.7788  12.7839  12.7882  12.8936  12.9941  13.0599
    13.1104  13.1372  13.2150  13.3168  13.3542  13.6611  13.7109  13.7310
    13.8823  14.0077  14.2352  14.2474  14.3105  14.3404  14.4336  14.4362
    14.7314  14.7740  14.7821  15.0184  15.1175  15.1619  15.2068  15.2569
    15.2653  15.2863  15.3105  15.3368  15.3797  15.4455  15.4875  15.5644
    15.6561  15.6852  15.7067  15.8169  15.8690  15.8850  15.9153  15.9376
    16.0033  16.0619  16.0790  16.1301  16.1357  16.1545  16.1597  16.1672
    16.2569  16.2712  16.2794  16.2960  16.3260  16.3386  16.3778  16.3902
    16.4431  16.4871  16.5187  16.5727  16.6142  16.6733  16.7797  16.8927
    17.0253  17.0463  17.0920  17.1660  17.1902  17.2432  17.2689  17.2846
    17.4352  17.5290  17.8850  17.8981  17.9191  17.9497  17.9514  18.1913
    18.2444  18.3191  18.4477  18.9460  19.0000  19.0034  19.0685  19.1780

[...]

          k =-0.5000-0.5000 0.0000 ( 31612 PWs)   bands (ev):

[...]

 ------ SPIN DOWN ----------

[...]

          k = 0.0000-0.5000-0.5734 ( 31696 PWs)   bands (ev):

[...]

          k =-0.5000 0.0000 0.5734 ( 31696 PWs)   bands (ev):

   -66.7685 -66.7223 -66.7004 -66.6933 -66.6715 -66.6351 -66.6176 -66.5961
   -66.5929 -62.4085 -62.4010 -62.3966 -62.3930 -62.3894 -62.3815 -62.3170
   -62.2999 -62.2946 -35.5288 -35.5120 -35.4932 -35.4883 -35.4715 -35.4713
   -35.4633 -35.4430 -35.4374 -35.4374 -35.4349 -35.4284 -35.4143 -35.4044
   -35.4018 -35.3964 -35.3740 -35.3737 -35.3625 -35.3574 -35.3479 -35.3470
   -35.3414 -35.3413 -35.3400 -35.3315 -35.3291 -31.2451 -31.2423 -31.2370
   -31.2333 -31.2325 -31.2270 -31.2259 -31.2258 -31.2247 -31.2206 -31.2165
   -31.2135 -31.2130 -31.2073 -31.2022 -31.1992 -31.1951 -31.1943 -31.1534
   -31.1523 -31.1480 -31.1438 -31.1281 -31.1254 -31.1160 -31.1014 -31.1007
     6.5271   6.5491   6.6259   6.6447   7.8340   7.8605   7.8627   7.8690
     7.9091   7.9157   7.9283   7.9511   8.2713   8.2780   8.3019   8.3048
     8.5172   8.5255   8.5327   8.5358   8.6662   8.6725   8.6745   8.6755
     8.6860   8.7013   8.7121   8.7262   8.7310   8.7367   8.7502   8.7535
     8.7563   8.7847   8.7875   8.7900   8.9533   8.9692   9.0370   9.0426
     9.0431   9.0479   9.0569   9.0594   9.1910   9.2062   9.2138   9.2168
     9.2224   9.2291   9.2357   9.2388   9.2436   9.2472   9.2499   9.2576
     9.2604   9.2653   9.2761   9.2794   9.3034   9.3447   9.3828   9.4063
     9.4169   9.4278   9.4520   9.4565   9.4652   9.4670   9.4691   9.4891
     9.5052   9.5192   9.5208   9.5313   9.5316   9.5459   9.5547   9.5602
     9.5818   9.5977   9.7550   9.7571   9.7952   9.8133   9.8176   9.8213
     9.8228   9.8406   9.8460   9.8503   9.8568   9.8618   9.8673   9.8806
     9.9388   9.9451  10.0168  10.0272  10.0332  10.0469  10.0524  10.0532
    10.3601  10.3764  10.3894  10.3917  10.4069  10.4139  10.4317  10.4402
    10.4515  10.4521  10.4723  10.4758  10.4778  10.4814  10.4911  10.5149
    10.5308  10.5637  10.5689  10.5781  10.5797  10.5909  10.6423  10.6496
    10.6560  10.6589  10.6802  10.6827  10.6922  10.7011  10.7138  10.7269
    10.7699  10.7903  10.8617  10.8794  10.9765  10.9875  11.0304  11.0328
    11.1132  11.1205  11.1475  11.1857  11.1921  11.1937  11.1956  11.2070
    11.2122  11.2136  11.2965  11.2987  11.3426  11.3478  11.3689  11.3809
    11.3846  11.3978  11.4218  11.4478  11.4494  11.4526  11.4873  11.4985
    11.5670  11.5706  11.5822  11.5835  11.5919  11.6125  11.6183  11.6214
    11.6239  11.6273  11.7324  11.7460  11.7462  11.7712  11.7832  11.8814
    11.8893  11.9092  11.9267  11.9377  11.9669  11.9949  12.0044  12.0136
    12.0215  12.0269  12.0299  12.0400  12.0418  12.0431  12.0571  12.0903
    12.2249  12.2355  12.2620  12.2749  12.2793  12.2934  12.3067  12.3298
    12.3431  12.3477  12.3663  12.3724  12.4097  12.4405  12.4427  12.4751
    12.4849  12.4968  12.5005  12.5175  12.5528  12.5619  12.5724  12.6109
    12.6160  12.6400  12.6449  12.6537  12.6542  12.7016  12.7390  12.7667
    12.7792  12.8444  12.9323  12.9835  12.9997  13.0425  13.0857  13.1308
    13.2213  13.2590  13.3593  13.4552  13.4719  13.5561  13.6084  13.9165
    13.9579  13.9768  14.0491  14.0789  14.1538  14.2793  14.3090  14.4159
    14.4224  14.5511  14.5606  14.5758  14.6305  14.7531  14.7699  15.0730
    15.0855  15.1356  15.2010  15.3824  15.3940  15.4213  15.4326  15.4733
    15.4818  15.6646  15.7159  15.7298  15.8365  15.9379  15.9688  16.0250
    16.0476  16.0639  16.1044  16.1499  16.1559  16.2205  16.2262  16.2450
    16.2871  16.3087  16.3508  16.3910  16.3932  16.4064  16.4102  16.4240
    16.4279  16.4450  16.4843  16.5698  16.5705  16.6167  16.6943  16.7417
    16.7865  16.8038  16.8396  16.8596  16.9098  16.9661  16.9773  17.0035
    17.0483  17.0711  17.1620  17.2666  18.6655  18.6958  18.7175  18.7533
    18.7811  18.7877  18.8002  18.8457  18.8772  18.8995  18.9161  18.9170

     the Fermi energy is    14.8204 ev

!    total energy              =  -33062.59190856 Ry
     Harris-Foulkes estimate   =  -33062.59189011 Ry
     estimated scf accuracy    <       0.00000046 Ry

     total all-electron energy =  -1410574.682283 Ry

     The total energy is the sum of the following terms:

     one-electron contribution =   -1645.68234244 Ry
     hartree contribution      =    1489.90270759 Ry
     xc contribution           =   -1658.74222251 Ry
     ewald contribution        =   -4919.25534656 Ry
     one-center paw contrib.   =  -26328.81470465 Ry

     total magnetization       =     0.49 Bohr mag/cell
     absolute magnetization    =    78.61 Bohr mag/cell

     convergence has been achieved in  21 iterations

     Writing output data file mnau2.save

     General routines

     Parallel routines

   This run was terminated on:  10:29:54   6Mar2019

   JOB DONE.