     Program PWSCF v.6.2 (svn rev. 14038) starts on  3Mar2019 at 23:49: 9

     R & G space division:  proc/nbgrp/npool/nimage =      16
     Waiting for input...
     Reading input from standard input

     Current dimensions of program PWSCF are:
     Max number of different atomic species (ntypx) = 10
     Max number of k-points (npk) =  40000
     Max angular momentum in pseudopotentials (lmaxx) =  3
               file Mn.pbe-spn-kjpaw_psl.0.3.1.UPF: wavefunction(s)  3P 3D renormalized
               file Mn.pbe-spn-kjpaw_psl.0.3.1.UPF: wavefunction(s)  3P 3D renormalized
               file Au.pbe-dn-kjpaw_psl.0.1.UPF: wavefunction(s)  6S 6P 5D renormalized

     Subspace diagonalization in iterative solution of the eigenvalue problem:
     a serial algorithm will be used

     Found symmetry operation: I + (  0.0000 -0.3333  0.0000)
     This is a supercell, fractional translations are disabled

     bravais-lattice index     =            0
     lattice parameter (alat)  =      19.2459  a.u.
     unit-cell volume          =    6216.1497 (a.u.)^3
     number of atoms/cell      =           54
     number of atomic types    =            3
     number of electrons       =       666.00
     number of Kohn-Sham states=          400
     kinetic-energy cutoff     =      45.0000  Ry
     charge density cutoff     =     400.0000  Ry
     convergence threshold     =      1.0E-06
     mixing beta               =       0.1000
     number of iterations used =            8  plain     mixing
     Exchange-correlation      = SLA PW PBX PBC ( 1  4  3  4 0 0)

     celldm(1)=  19.245946  celldm(2)=   0.000000  celldm(3)=   0.000000
     celldm(4)=   0.000000  celldm(5)=   0.000000  celldm(6)=   0.000000

     crystal axes: (cart. coord. in units of alat)
               a(1) = (   1.000000   0.000000   0.000000 )
               a(2) = (   0.000000   1.000000   0.000000 )
               a(3) = (   0.000000   0.000000   0.871974 )

     reciprocal axes: (cart. coord. in units 2 pi/alat)
               b(1) = (  1.000000  0.000000  0.000000 )
               b(2) = (  0.000000  1.000000  0.000000 )
               b(3) = (  0.000000  0.000000  1.146823 )

     PseudoPot. # 1 for Mn read from file:
     ./pseudo/Mn.pbe-spn-kjpaw_psl.0.3.1.UPF
     MD5 check sum: 7eef95dd2aae66803482eea66ebeebf1
     Pseudo is Projector augmented-wave + core cor, Zval = 15.0
     Generated using "atomic" code by A. Dal Corso v.5.0.99 svn rev. 10869
     Shape of augmentation charge: PSQ
     Using radial grid of 1187 points,  6 beta functions with:
                l(1) =   0
                l(2) =   0
                l(3) =   1
                l(4) =   1
                l(5) =   2
                l(6) =   2
     Q(r) pseudized with 0 coefficients

     PseudoPot. # 2 for Mn read from file:
     ./pseudo/Mn.pbe-spn-kjpaw_psl.0.3.1.UPF
     MD5 check sum: 7eef95dd2aae66803482eea66ebeebf1
     Pseudo is Projector augmented-wave + core cor, Zval = 15.0
     Generated using "atomic" code by A. Dal Corso v.5.0.99 svn rev. 10869
     Shape of augmentation charge: PSQ
     Using radial grid of 1187 points,  6 beta functions with:
                l(1) =   0
                l(2) =   0
                l(3) =   1
                l(4) =   1
                l(5) =   2
                l(6) =   2
     Q(r) pseudized with 0 coefficients

     PseudoPot. # 3 for Au read from file:
     ./pseudo/Au.pbe-dn-kjpaw_psl.0.1.UPF
     MD5 check sum: 5c9b92683623e7ae2ab3f8e525febab6
     Pseudo is Projector augmented-wave + core cor, Zval = 11.0
     Generated using "atomic" code by A. Dal Corso v.5.0.2 svn rev. 9415
     Shape of augmentation charge: PSQ
     Using radial grid of 1279 points,  6 beta functions with:
                l(1) =   0
                l(2) =   0
                l(3) =   1
                l(4) =   1
                l(5) =   2
                l(6) =   2
     Q(r) pseudized with 0 coefficients

     atomic species   valence    mass     pseudopotential
        Mn1           15.00    54.93800     Mn( 1.00)
        Mn2           15.00    54.93800     Mn( 1.00)
        Au            11.00   196.96600     Au( 1.00)

     Starting magnetic structure
     atomic species   magnetization
        Mn1          0.800
        Mn2         -0.800
        Au           0.000

      4 Sym. Ops. (no inversion) found

   Cartesian axes

     site n.     atom                  positions (alat units)
         1           Mn1 tau(   1) = (   0.0000000   0.0000000   0.0000000  )
         2           Mn1 tau(   2) = (   0.0000000   0.3333300   0.0000000  )
         3           Mn1 tau(   3) = (   0.0000000   0.6666700   0.0000000  )
         4           Mn1 tau(   4) = (   0.3333300   0.0000000   0.0000000  )
         5           Mn1 tau(   5) = (   0.3333300   0.3333300   0.0000000  )
         6           Mn1 tau(   6) = (   0.3333300   0.6666700   0.0000000  )
         7           Mn2 tau(   7) = (   0.6666700   0.0000000   0.0000000  )
         8           Mn2 tau(   8) = (   0.6666700   0.3333300   0.0000000  )
         9           Mn2 tau(   9) = (   0.6666700   0.6666700   0.0000000  )
        10           Mn2 tau(  10) = (   0.1666700   0.1666700   0.4359871  )
        11           Mn2 tau(  11) = (   0.1666700   0.5000000   0.4359871  )
        12           Mn2 tau(  12) = (   0.1666700   0.8333300   0.4359871  )
        13           Mn2 tau(  13) = (   0.5000000   0.1666700   0.4359871  )
        14           Mn2 tau(  14) = (   0.5000000   0.5000000   0.4359871  )
        15           Mn2 tau(  15) = (   0.5000000   0.8333300   0.4359871  )
        16           Mn1 tau(  16) = (   0.8333300   0.1666700   0.4359871  )
        17           Mn1 tau(  17) = (   0.8333300   0.5000000   0.4359871  )
        18           Mn1 tau(  18) = (   0.8333300   0.8333300   0.4359871  )
        19           Au  tau(  19) = (   0.1666700   0.1666700   0.7327374  )
        20           Au  tau(  20) = (   0.1666700   0.5000000   0.7327374  )
        21           Au  tau(  21) = (   0.1666700   0.8333300   0.7327374  )
        22           Au  tau(  22) = (   0.5000000   0.1666700   0.7327374  )
        23           Au  tau(  23) = (   0.5000000   0.5000000   0.7327374  )
        24           Au  tau(  24) = (   0.5000000   0.8333300   0.7327374  )
        25           Au  tau(  25) = (   0.8333300   0.1666700   0.7327374  )
        26           Au  tau(  26) = (   0.8333300   0.5000000   0.7327374  )
        27           Au  tau(  27) = (   0.8333300   0.8333300   0.7327374  )
        28           Au  tau(  28) = (   0.1666700   0.1666700   0.1392369  )
        29           Au  tau(  29) = (   0.1666700   0.5000000   0.1392369  )
        30           Au  tau(  30) = (   0.1666700   0.8333300   0.1392369  )
        31           Au  tau(  31) = (   0.5000000   0.1666700   0.1392369  )
        32           Au  tau(  32) = (   0.5000000   0.5000000   0.1392369  )
        33           Au  tau(  33) = (   0.5000000   0.8333300   0.1392369  )
        34           Au  tau(  34) = (   0.8333300   0.1666700   0.1392369  )
        35           Au  tau(  35) = (   0.8333300   0.5000000   0.1392369  )
        36           Au  tau(  36) = (   0.8333300   0.8333300   0.1392369  )
        37           Au  tau(  37) = (   0.0000000   0.0000000   0.2967503  )
        38           Au  tau(  38) = (   0.0000000   0.3333300   0.2967503  )
        39           Au  tau(  39) = (   0.0000000   0.6666700   0.2967503  )
        40           Au  tau(  40) = (   0.3333300   0.0000000   0.2967503  )
        41           Au  tau(  41) = (   0.3333300   0.3333300   0.2967503  )
        42           Au  tau(  42) = (   0.3333300   0.6666700   0.2967503  )
        43           Au  tau(  43) = (   0.6666700   0.0000000   0.2967503  )
        44           Au  tau(  44) = (   0.6666700   0.3333300   0.2967503  )
        45           Au  tau(  45) = (   0.6666700   0.6666700   0.2967503  )
        46           Au  tau(  46) = (   0.0000000   0.0000000   0.5752240  )
        47           Au  tau(  47) = (   0.0000000   0.3333300   0.5752240  )
        48           Au  tau(  48) = (   0.0000000   0.6666700   0.5752240  )
        49           Au  tau(  49) = (   0.3333300   0.0000000   0.5752240  )
        50           Au  tau(  50) = (   0.3333300   0.3333300   0.5752240  )
        51           Au  tau(  51) = (   0.3333300   0.6666700   0.5752240  )
        52           Au  tau(  52) = (   0.6666700   0.0000000   0.5752240  )
        53           Au  tau(  53) = (   0.6666700   0.3333300   0.5752240  )
        54           Au  tau(  54) = (   0.6666700   0.6666700   0.5752240  )

     number of k points=     8 (tetrahedron method)
                       cart. coord. in units 2pi/alat
        k(    1) = (   0.0000000   0.0000000   0.0000000), wk =   0.1250000
        k(    2) = (   0.0000000   0.0000000  -0.5734114), wk =   0.1250000
        k(    3) = (   0.0000000  -0.5000000   0.0000000), wk =   0.1250000
        k(    4) = (   0.0000000  -0.5000000  -0.5734114), wk =   0.1250000
        k(    5) = (  -0.5000000  -0.5000000   0.0000000), wk =   0.1250000
        k(    6) = (  -0.5000000  -0.5000000  -0.5734114), wk =   0.1250000
        k(    7) = (  -0.5000000   0.0000000   0.0000000), wk =   0.1250000
        k(    8) = (  -0.5000000   0.0000000   0.5734114), wk =   0.1250000

     Check: negative/imaginary core charge=   -0.000006    0.000000

     Initial potential from superposition of free atoms

     starting charge  665.98709, renormalised to  666.00000
     Starting wfc are  504 randomized atomic wfcs
     Checking if some PAW data can be deallocated...

     Self-consistent Calculation

     iteration #  1     ecut=    45.00 Ry     beta= 0.10
     Davidson diagonalization with overlap
     ethr =  1.00E-02,  avg # of iterations =  3.6

     total energy              =  -33047.16401810 Ry
     Harris-Foulkes estimate   =  -33044.00721210 Ry
     estimated scf accuracy    <      27.06489333 Ry

     total magnetization       =    -0.01 Bohr mag/cell
     absolute magnetization    =    92.15 Bohr mag/cell

[...]

     total energy              =  -33062.60091161 Ry
     Harris-Foulkes estimate   =  -33062.60091139 Ry
     estimated scf accuracy    <       0.00000121 Ry

[...]

     iteration # 51     ecut=    45.00 Ry     beta= 0.10
     Davidson diagonalization with overlap
     ethr =  1.82E-10,  avg # of iterations =  1.1

     Magnetic moment per site:
     atom:    1    charge:   13.5813    magn:    3.9564    constr:    0.0000
     atom:    2    charge:   13.5810    magn:    3.9559    constr:    0.0000
     atom:    3    charge:   13.5810    magn:    3.9559    constr:    0.0000
     atom:    4    charge:   13.5703    magn:    4.0613    constr:    0.0000
     atom:    5    charge:   13.5688    magn:    4.0703    constr:    0.0000
     atom:    6    charge:   13.5688    magn:    4.0703    constr:    0.0000
     atom:    7    charge:   13.5755    magn:   -4.0169    constr:    0.0000
     atom:    8    charge:   13.5763    magn:   -4.0074    constr:    0.0000
     atom:    9    charge:   13.5763    magn:   -4.0074    constr:    0.0000
     atom:   10    charge:   13.5700    magn:   -4.0643    constr:    0.0000
     atom:   11    charge:   13.5681    magn:   -4.0733    constr:    0.0000
     atom:   12    charge:   13.5700    magn:   -4.0643    constr:    0.0000
     atom:   13    charge:   13.5810    magn:   -3.9569    constr:    0.0000
     atom:   14    charge:   13.5808    magn:   -3.9544    constr:    0.0000
     atom:   15    charge:   13.5810    magn:   -3.9569    constr:    0.0000
     atom:   16    charge:   13.5758    magn:    4.0137    constr:    0.0000
     atom:   17    charge:   13.5762    magn:    4.0046    constr:    0.0000
     atom:   18    charge:   13.5758    magn:    4.0137    constr:    0.0000
     atom:   19    charge:    9.1209    magn:    0.0469    constr:    0.0000
     atom:   20    charge:    9.1209    magn:    0.0480    constr:    0.0000
     atom:   21    charge:    9.1209    magn:    0.0469    constr:    0.0000
     atom:   22    charge:    9.1220    magn:   -0.0071    constr:    0.0000
     atom:   23    charge:    9.1218    magn:   -0.0046    constr:    0.0000
     atom:   24    charge:    9.1220    magn:   -0.0071    constr:    0.0000
     atom:   25    charge:    9.1201    magn:    0.0083    constr:    0.0000
     atom:   26    charge:    9.1199    magn:    0.0102    constr:    0.0000
     atom:   27    charge:    9.1201    magn:    0.0083    constr:    0.0000
     atom:   28    charge:    9.1209    magn:    0.0469    constr:    0.0000
     atom:   29    charge:    9.1209    magn:    0.0480    constr:    0.0000
     atom:   30    charge:    9.1209    magn:    0.0469    constr:    0.0000
     atom:   31    charge:    9.1220    magn:   -0.0071    constr:    0.0000
     atom:   32    charge:    9.1218    magn:   -0.0046    constr:    0.0000
     atom:   33    charge:    9.1220    magn:   -0.0071    constr:    0.0000
     atom:   34    charge:    9.1201    magn:    0.0083    constr:    0.0000
     atom:   35    charge:    9.1199    magn:    0.0102    constr:    0.0000
     atom:   36    charge:    9.1201    magn:    0.0083    constr:    0.0000
     atom:   37    charge:    9.1222    magn:    0.0072    constr:    0.0000
     atom:   38    charge:    9.1220    magn:    0.0058    constr:    0.0000
     atom:   39    charge:    9.1220    magn:    0.0058    constr:    0.0000
     atom:   40    charge:    9.1210    magn:   -0.0468    constr:    0.0000
     atom:   41    charge:    9.1208    magn:   -0.0475    constr:    0.0000
     atom:   42    charge:    9.1208    magn:   -0.0475    constr:    0.0000
     atom:   43    charge:    9.1203    magn:   -0.0079    constr:    0.0000
     atom:   44    charge:    9.1199    magn:   -0.0095    constr:    0.0000
     atom:   45    charge:    9.1199    magn:   -0.0095    constr:    0.0000
     atom:   46    charge:    9.1222    magn:    0.0072    constr:    0.0000
     atom:   47    charge:    9.1220    magn:    0.0058    constr:    0.0000
     atom:   48    charge:    9.1220    magn:    0.0058    constr:    0.0000
     atom:   49    charge:    9.1210    magn:   -0.0468    constr:    0.0000
     atom:   50    charge:    9.1208    magn:   -0.0475    constr:    0.0000
     atom:   51    charge:    9.1208    magn:   -0.0475    constr:    0.0000
     atom:   52    charge:    9.1203    magn:   -0.0079    constr:    0.0000
     atom:   53    charge:    9.1199    magn:   -0.0095    constr:    0.0000
     atom:   54    charge:    9.1199    magn:   -0.0095    constr:    0.0000

     End of self-consistent calculation

 ------ SPIN UP ------------

          k = 0.0000 0.0000 0.0000 ( 31747 PWs)   bands (ev):

   -66.7842 -66.7839 -66.7723 -66.6755 -66.6752 -66.6649 -66.6120 -66.6113
   -66.6111 -62.4002 -62.3997 -62.3996 -62.3566 -62.3562 -62.3547 -62.3438
   -62.3435 -62.3415 -35.5409 -35.5405 -35.5371 -35.5370 -35.5323 -35.5156
   -35.5042 -35.5037 -35.4906 -35.4430 -35.4425 -35.4398 -35.4133 -35.4089
   -35.4046 -35.4039 -35.3929 -35.3920 -35.3617 -35.3612 -35.3569 -35.3547
   -35.3543 -35.3531 -35.3523 -35.3517 -35.3511 -31.2372 -31.2370 -31.2263
   -31.2261 -31.2254 -31.2252 -31.2164 -31.2150 -31.2146 -31.1885 -31.1877
   -31.1860 -31.1857 -31.1844 -31.1818 -31.1803 -31.1765 -31.1760 -31.1753
   -31.1744 -31.1744 -31.1739 -31.1739 -31.1696 -31.1514 -31.1507 -31.1495
     5.6143   7.1418   7.1786   7.1793   7.2118   7.3645   7.8639   7.8646
     7.9356   7.9366   8.0635   8.1331   8.1388   8.1392   8.2024   8.2294
     8.2766   8.2770   8.3265   8.5267   8.5279   8.5604   8.5924   8.5931
     8.5985   8.8440   8.8655   8.8779   8.8786   8.8860   8.8867   8.8894
     8.9125   8.9131   8.9153   8.9240   8.9242   8.9485   8.9491   8.9830
     9.0153   9.0846   9.1199   9.1204   9.1319   9.1324   9.1604   9.1697
     9.1698   9.2116   9.2125   9.2704   9.2712   9.3069   9.3072   9.3366
     9.3502   9.3613   9.3617   9.3770   9.3771   9.4126   9.4137   9.4279
     9.4281   9.4471   9.4474   9.4546   9.4579   9.4582   9.5151   9.5599
     9.5789   9.5853   9.5858   9.5909   9.6441   9.6441   9.6700   9.6708
     9.6759   9.6760   9.7038   9.7449   9.7454   9.7974   9.7978   9.8503
     9.8514   9.8982   9.9253   9.9254   9.9565   9.9691  10.0331  10.0479
    10.1117  10.1135  10.1366  10.1370  10.2947  10.2957  10.2965  10.2974
    10.3023  10.3028  10.3031  10.3082  10.3087  10.3161  10.3163  10.3478
    10.3533  10.3542  10.3577  10.3595  10.3602  10.3654  10.3848  10.3971
    10.3976  10.5212  10.5215  10.5844  10.6132  10.6139  10.6210  10.6217
    10.7344  10.7368  10.7861  10.7878  10.8257  10.8260  10.8291  10.8474
    10.8482  10.8501  10.8616  10.8624  10.8776  10.8840  10.8852  10.8858
    10.9152  10.9153  10.9927  11.0560  11.0563  11.1171  11.2198  11.2245
    11.2254  11.2274  11.2633  11.3163  11.3169  11.3403  11.3407  11.3505
    11.3572  11.3582  11.3762  11.3769  11.3943  11.3948  11.4034  11.4126
    11.4197  11.4679  11.4708  11.5376  11.5926  11.5933  11.5965  11.5972
    11.6601  11.6604  11.7244  11.7378  11.7379  11.7551  11.7813  11.8320
    11.8329  11.8716  11.8745  11.8752  11.9024  11.9365  11.9378  11.9480
    11.9852  11.9870  12.0623  12.1015  12.1043  12.1046  12.1052  12.1449
    12.1451  12.1495  12.1497  12.1641  12.1653  12.1744  12.1800  12.2034
    12.2422  12.2471  12.2479  12.3242  12.3254  12.3522  12.4116  12.4118
    12.4300  12.4354  12.4430  12.4483  12.4900  12.4913  12.4997  12.5199
    12.5241  12.5300  12.5321  12.5653  12.5663  12.5853  12.5863  12.6504
    12.6949  12.6972  12.7578  12.7629  12.7633  12.8014  13.0874  13.1216
    13.1220  13.1760  13.2286  13.3769  13.3771  13.3798  13.7246  13.7257
    13.9357  13.9360  14.2231  14.2920  14.3191  14.3204  14.4498  14.4552
    14.7411  14.7417  14.9512  14.9548  15.1556  15.1621  15.1637  15.1884
    15.1908  15.2659  15.2682  15.4488  15.4496  15.4818  15.4830  15.6124
    15.6938  15.6949  15.7086  15.7935  15.7953  15.8396  15.8733  15.9476
    16.0127  16.0658  16.1098  16.1121  16.1435  16.1438  16.1786  16.1802
    16.2901  16.3093  16.3109  16.3443  16.3475  16.3574  16.3856  16.3868
    16.4445  16.4480  16.4506  16.5208  16.5216  16.7240  16.7256  16.9620
    16.9641  17.0251  17.0616  17.1332  17.2338  17.2355  17.2572  17.4031
    17.4054  17.5740  17.8899  17.9129  17.9144  17.9534  17.9545  18.2016
    18.2029  18.3408  18.3432  18.9279  19.0692  19.0723  19.0880  19.0891

[...]

          k =-0.5000-0.5000 0.0000 ( 31612 PWs)   bands (ev):

[...]

 ------ SPIN DOWN ----------

[...]

          k = 0.0000-0.5000-0.5734 ( 31696 PWs)   bands (ev):

[...]

          k =-0.5000 0.0000 0.5734 ( 31696 PWs)   bands (ev):

   -66.7880 -66.7762 -66.7759 -66.6792 -66.6689 -66.6686 -66.6129 -66.6126
   -66.6086 -62.4002 -62.3997 -62.3996 -62.3566 -62.3550 -62.3546 -62.3435
   -62.3428 -62.3426 -35.5421 -35.5411 -35.5385 -35.5381 -35.5251 -35.5185
   -35.5082 -35.4951 -35.4947 -35.4439 -35.4413 -35.4409 -35.4167 -35.4091
   -35.4031 -35.3979 -35.3966 -35.3947 -35.3619 -35.3609 -35.3574 -35.3569
   -35.3538 -35.3536 -35.3519 -35.3515 -35.3485 -31.2374 -31.2369 -31.2264
   -31.2262 -31.2254 -31.2253 -31.2161 -31.2154 -31.2141 -31.1883 -31.1865
   -31.1860 -31.1855 -31.1838 -31.1814 -31.1807 -31.1764 -31.1752 -31.1751
   -31.1750 -31.1742 -31.1742 -31.1734 -31.1698 -31.1512 -31.1505 -31.1501
     6.4955   6.5578   6.6185   6.6679   7.8236   7.8240   7.8742   7.8755
     7.9083   7.9087   7.9448   7.9461   8.2651   8.2812   8.2990   8.3027
     8.5210   8.5212   8.5308   8.5331   8.6728   8.6742   8.6827   8.6838
     8.6838   8.6849   8.7248   8.7267   8.7272   8.7310   8.7462   8.7476
     8.7659   8.7726   8.7829   8.7831   8.9281   8.9799   9.0240   9.0360
     9.0362   9.0584   9.0597   9.0778   9.1512   9.2077   9.2080   9.2090
     9.2345   9.2351   9.2355   9.2356   9.2416   9.2429   9.2511   9.2516
     9.2607   9.2647   9.2650   9.2656   9.2856   9.3836   9.3843   9.3945
     9.4295   9.4299   9.4524   9.4537   9.4589   9.4675   9.4798   9.4808
     9.5031   9.5034   9.5206   9.5213   9.5410   9.5418   9.5664   9.5674
     9.5686   9.6204   9.7524   9.7582   9.7930   9.7941   9.8190   9.8297
     9.8299   9.8303   9.8315   9.8378   9.8524   9.8658   9.8800   9.8804
     9.9419   9.9570  10.0236  10.0243  10.0316  10.0397  10.0406  10.0617
    10.3544  10.3550  10.3767  10.3840  10.3848  10.3973  10.4349  10.4361
    10.4454  10.4558  10.4583  10.4592  10.4750  10.4766  10.5412  10.5422
    10.5434  10.5434  10.5550  10.5703  10.6028  10.6029  10.6345  10.6592
    10.6758  10.6759  10.6782  10.6794  10.7071  10.7076  10.7078  10.7289
    10.7293  10.8138  10.8167  10.8508  10.9866  10.9867  11.0141  11.0142
    11.1169  11.1176  11.1818  11.1827  11.1896  11.1900  11.1944  11.1953
    11.2120  11.2139  11.3235  11.3262  11.3285  11.3460  11.3689  11.3694
    11.3784  11.3860  11.4446  11.4453  11.4492  11.4529  11.4637  11.5081
    11.5687  11.5700  11.5700  11.5707  11.5850  11.5853  11.6146  11.6311
    11.6317  11.6353  11.7331  11.7338  11.7529  11.7548  11.7771  11.7781
    11.8977  11.9025  11.9530  11.9714  11.9726  11.9974  11.9992  12.0114
    12.0126  12.0127  12.0138  12.0357  12.0385  12.0391  12.0403  12.1130
    12.1953  12.1974  12.2359  12.2391  12.2676  12.2911  12.2912  12.3336
    12.3343  12.3958  12.3963  12.4006  12.4198  12.4241  12.4249  12.4420
    12.4469  12.4747  12.4749  12.4973  12.5096  12.5280  12.5316  12.6338
    12.6341  12.6404  12.6560  12.6568  12.6578  12.6735  12.7145  12.8359
    12.8729  12.8742  12.9318  12.9323  12.9462  13.0166  13.0394  13.1965
    13.2076  13.2090  13.2939  13.3325  13.5667  13.5683  13.6207  13.9117
    13.9310  13.9315  14.0141  14.0141  14.1413  14.1860  14.1871  14.3626
    14.3635  14.5435  14.5659  14.7347  14.7379  14.7387  14.7415  15.1227
    15.1251  15.2049  15.2070  15.4074  15.4099  15.4667  15.4689  15.4698
    15.4952  15.6432  15.6724  15.6740  15.7760  15.8662  15.8674  16.0146
    16.0637  16.0913  16.0974  16.1836  16.1857  16.1892  16.1919  16.2236
    16.3049  16.3071  16.3104  16.3444  16.3459  16.3829  16.3847  16.4334
    16.4530  16.5632  16.6025  16.6115  16.6131  16.6510  16.6524  16.6668
    16.8098  16.8122  16.8497  16.8513  16.8784  16.8810  16.9567  16.9593
    17.0772  17.0797  17.2462  17.2482  18.6629  18.6890  18.6900  18.7326
    18.7781  18.7781  18.8318  18.8340  18.8564  18.8587  18.9440  18.9711

     the Fermi energy is    14.8446 ev

!    total energy              =  -33062.60091128 Ry
     Harris-Foulkes estimate   =  -33062.60091115 Ry
     estimated scf accuracy    <       0.00000076 Ry

     total all-electron energy =  -1410574.691286 Ry

     The total energy is the sum of the following terms:

     one-electron contribution =   -1645.62210795 Ry
     hartree contribution      =    1489.84823193 Ry
     xc contribution           =   -1658.75179146 Ry
     ewald contribution        =   -4919.25534656 Ry
     one-center paw contrib.   =  -26328.81989724 Ry

     total magnetization       =     0.00 Bohr mag/cell
     absolute magnetization    =    78.88 Bohr mag/cell

     convergence has been achieved in  51 iterations

     Writing output data file mnau2.save

     General routines

     Parallel routines

   This run was terminated on:   1:38:13   4Mar2019

   JOB DONE.