     Program PWSCF v.6.2 (svn rev. 14038) starts on  7Mar2019 at 16: 6:37

     R & G space division:  proc/nbgrp/npool/nimage =      16
     Waiting for input...
     Reading input from standard input

     Current dimensions of program PWSCF are:
     Max number of different atomic species (ntypx) = 10
     Max number of k-points (npk) =  40000
     Max angular momentum in pseudopotentials (lmaxx) =  3
               file Mn.pbe-spn-kjpaw_psl.0.3.1.UPF: wavefunction(s)  3P 3D renormalized
               file Mn.pbe-spn-kjpaw_psl.0.3.1.UPF: wavefunction(s)  3P 3D renormalized
               file Au.pbe-dn-kjpaw_psl.0.1.UPF: wavefunction(s)  6S 6P 5D renormalized

     Subspace diagonalization in iterative solution of the eigenvalue problem:
     a serial algorithm will be used

     bravais-lattice index     =            0
     lattice parameter (alat)  =      19.2459  a.u.
     unit-cell volume          =    6216.1497 (a.u.)^3
     number of atoms/cell      =           54
     number of atomic types    =            3
     number of electrons       =       666.00
     number of Kohn-Sham states=          400
     kinetic-energy cutoff     =      45.0000  Ry
     charge density cutoff     =     400.0000  Ry
     convergence threshold     =      1.0E-06
     mixing beta               =       0.1000
     number of iterations used =            8  plain     mixing
     Exchange-correlation      = SLA PW PBX PBC ( 1  4  3  4 0 0)

     celldm(1)=  19.245946  celldm(2)=   0.000000  celldm(3)=   0.000000
     celldm(4)=   0.000000  celldm(5)=   0.000000  celldm(6)=   0.000000

     crystal axes: (cart. coord. in units of alat)
               a(1) = (   1.000000   0.000000   0.000000 )
               a(2) = (   0.000000   1.000000   0.000000 )
               a(3) = (   0.000000   0.000000   0.871974 )

     reciprocal axes: (cart. coord. in units 2 pi/alat)
               b(1) = (  1.000000  0.000000  0.000000 )
               b(2) = (  0.000000  1.000000  0.000000 )
               b(3) = (  0.000000  0.000000  1.146823 )

     PseudoPot. # 1 for Mn read from file:
     ./pseudo/Mn.pbe-spn-kjpaw_psl.0.3.1.UPF
     MD5 check sum: 7eef95dd2aae66803482eea66ebeebf1
     Pseudo is Projector augmented-wave + core cor, Zval = 15.0
     Generated using "atomic" code by A. Dal Corso v.5.0.99 svn rev. 10869
     Shape of augmentation charge: PSQ
     Using radial grid of 1187 points,  6 beta functions with:
                l(1) =   0
                l(2) =   0
                l(3) =   1
                l(4) =   1
                l(5) =   2
                l(6) =   2
     Q(r) pseudized with 0 coefficients

     PseudoPot. # 2 for Mn read from file:
     ./pseudo/Mn.pbe-spn-kjpaw_psl.0.3.1.UPF
     MD5 check sum: 7eef95dd2aae66803482eea66ebeebf1
     Pseudo is Projector augmented-wave + core cor, Zval = 15.0
     Generated using "atomic" code by A. Dal Corso v.5.0.99 svn rev. 10869
     Shape of augmentation charge: PSQ
     Using radial grid of 1187 points,  6 beta functions with:
                l(1) =   0
                l(2) =   0
                l(3) =   1
                l(4) =   1
                l(5) =   2
                l(6) =   2
     Q(r) pseudized with 0 coefficients

     PseudoPot. # 3 for Au read from file:
     ./pseudo/Au.pbe-dn-kjpaw_psl.0.1.UPF
     MD5 check sum: 5c9b92683623e7ae2ab3f8e525febab6
     Pseudo is Projector augmented-wave + core cor, Zval = 11.0
     Generated using "atomic" code by A. Dal Corso v.5.0.2 svn rev. 9415
     Shape of augmentation charge: PSQ
     Using radial grid of 1279 points,  6 beta functions with:
                l(1) =   0
                l(2) =   0
                l(3) =   1
                l(4) =   1
                l(5) =   2
                l(6) =   2
     Q(r) pseudized with 0 coefficients

     atomic species   valence    mass     pseudopotential
        Mn1           15.00    54.93800     Mn( 1.00)
        Mn2           15.00    54.93800     Mn( 1.00)
        Au            11.00   196.96600     Au( 1.00)

     Starting magnetic structure
     atomic species   magnetization
        Mn1          0.800
        Mn2         -0.800
        Au           0.000

      4 Sym. Ops. (no inversion) found

   Cartesian axes

     site n.     atom                  positions (alat units)
         1           Mn1 tau(   1) = (   0.0000000   0.0000000   0.0000000  )
         2           Mn1 tau(   2) = (   0.0000000   0.3333300   0.0000000  )
         3           Mn2 tau(   3) = (   0.0000000   0.6666700   0.0000000  )
         4           Mn1 tau(   4) = (   0.3333300   0.0000000   0.0000000  )
         5           Mn2 tau(   5) = (   0.3333300   0.3333300   0.0000000  )
         6           Mn1 tau(   6) = (   0.3333300   0.6666700   0.0000000  )
         7           Mn2 tau(   7) = (   0.6666700   0.0000000   0.0000000  )
         8           Mn1 tau(   8) = (   0.6666700   0.3333300   0.0000000  )
         9           Mn2 tau(   9) = (   0.6666700   0.6666700   0.0000000  )
        10           Mn2 tau(  10) = (   0.1666700   0.1666700   0.4359871  )
        11           Mn2 tau(  11) = (   0.1666700   0.5000000   0.4359871  )
        12           Mn1 tau(  12) = (   0.1666700   0.8333300   0.4359871  )
        13           Mn2 tau(  13) = (   0.5000000   0.1666700   0.4359871  )
        14           Mn1 tau(  14) = (   0.5000000   0.5000000   0.4359871  )
        15           Mn2 tau(  15) = (   0.5000000   0.8333300   0.4359871  )
        16           Mn1 tau(  16) = (   0.8333300   0.1666700   0.4359871  )
        17           Mn2 tau(  17) = (   0.8333300   0.5000000   0.4359871  )
        18           Mn1 tau(  18) = (   0.8333300   0.8333300   0.4359871  )
        19           Au  tau(  19) = (   0.1666700   0.1666700   0.7327374  )
        20           Au  tau(  20) = (   0.1666700   0.5000000   0.7327374  )
        21           Au  tau(  21) = (   0.1666700   0.8333300   0.7327374  )
        22           Au  tau(  22) = (   0.5000000   0.1666700   0.7327374  )
        23           Au  tau(  23) = (   0.5000000   0.5000000   0.7327374  )
        24           Au  tau(  24) = (   0.5000000   0.8333300   0.7327374  )
        25           Au  tau(  25) = (   0.8333300   0.1666700   0.7327374  )
        26           Au  tau(  26) = (   0.8333300   0.5000000   0.7327374  )
        27           Au  tau(  27) = (   0.8333300   0.8333300   0.7327374  )
        28           Au  tau(  28) = (   0.1666700   0.1666700   0.1392369  )
        29           Au  tau(  29) = (   0.1666700   0.5000000   0.1392369  )
        30           Au  tau(  30) = (   0.1666700   0.8333300   0.1392369  )
        31           Au  tau(  31) = (   0.5000000   0.1666700   0.1392369  )
        32           Au  tau(  32) = (   0.5000000   0.5000000   0.1392369  )
        33           Au  tau(  33) = (   0.5000000   0.8333300   0.1392369  )
        34           Au  tau(  34) = (   0.8333300   0.1666700   0.1392369  )
        35           Au  tau(  35) = (   0.8333300   0.5000000   0.1392369  )
        36           Au  tau(  36) = (   0.8333300   0.8333300   0.1392369  )
        37           Au  tau(  37) = (   0.0000000   0.0000000   0.2967503  )
        38           Au  tau(  38) = (   0.0000000   0.3333300   0.2967503  )
        39           Au  tau(  39) = (   0.0000000   0.6666700   0.2967503  )
        40           Au  tau(  40) = (   0.3333300   0.0000000   0.2967503  )
        41           Au  tau(  41) = (   0.3333300   0.3333300   0.2967503  )
        42           Au  tau(  42) = (   0.3333300   0.6666700   0.2967503  )
        43           Au  tau(  43) = (   0.6666700   0.0000000   0.2967503  )
        44           Au  tau(  44) = (   0.6666700   0.3333300   0.2967503  )
        45           Au  tau(  45) = (   0.6666700   0.6666700   0.2967503  )
        46           Au  tau(  46) = (   0.0000000   0.0000000   0.5752240  )
        47           Au  tau(  47) = (   0.0000000   0.3333300   0.5752240  )
        48           Au  tau(  48) = (   0.0000000   0.6666700   0.5752240  )
        49           Au  tau(  49) = (   0.3333300   0.0000000   0.5752240  )
        50           Au  tau(  50) = (   0.3333300   0.3333300   0.5752240  )
        51           Au  tau(  51) = (   0.3333300   0.6666700   0.5752240  )
        52           Au  tau(  52) = (   0.6666700   0.0000000   0.5752240  )
        53           Au  tau(  53) = (   0.6666700   0.3333300   0.5752240  )
        54           Au  tau(  54) = (   0.6666700   0.6666700   0.5752240  )

     number of k points=     6 (tetrahedron method)
                       cart. coord. in units 2pi/alat
        k(    1) = (   0.0000000   0.0000000   0.0000000), wk =   0.1250000
        k(    2) = (   0.0000000   0.0000000  -0.5734114), wk =   0.1250000
        k(    3) = (   0.0000000  -0.5000000   0.0000000), wk =   0.2500000
        k(    4) = (   0.0000000  -0.5000000  -0.5734114), wk =   0.2500000
        k(    5) = (  -0.5000000  -0.5000000   0.0000000), wk =   0.1250000
        k(    6) = (  -0.5000000  -0.5000000  -0.5734114), wk =   0.1250000

     Check: negative/imaginary core charge=   -0.000006    0.000000

     Initial potential from superposition of free atoms

     starting charge  665.98709, renormalised to  666.00000
     Starting wfc are  504 randomized atomic wfcs
     Checking if some PAW data can be deallocated...

     Self-consistent Calculation

     iteration #  1     ecut=    45.00 Ry     beta= 0.10
     Davidson diagonalization with overlap
     ethr =  1.00E-02,  avg # of iterations =  3.6

     total energy              =  -33047.22007096 Ry
     Harris-Foulkes estimate   =  -33044.07905080 Ry
     estimated scf accuracy    <      26.95794458 Ry

     total magnetization       =     0.05 Bohr mag/cell
     absolute magnetization    =    92.05 Bohr mag/cell

[...]

     total energy              =  -33062.56563846 Ry
     Harris-Foulkes estimate   =  -33062.56563455 Ry
     estimated scf accuracy    <       0.00000109 Ry

[...]

     iteration # 22     ecut=    45.00 Ry     beta= 0.10
     Davidson diagonalization with overlap
     ethr =  1.63E-10,  avg # of iterations =  2.1

     Magnetic moment per site:
     atom:    1    charge:   13.5747    magn:    4.0157    constr:    0.0000
     atom:    2    charge:   13.5800    magn:    3.9686    constr:    0.0000
     atom:    3    charge:   13.5742    magn:   -4.0351    constr:    0.0000
     atom:    4    charge:   13.5800    magn:    3.9686    constr:    0.0000
     atom:    5    charge:   13.5811    magn:   -3.9691    constr:    0.0000
     atom:    6    charge:   13.5726    magn:    4.0482    constr:    0.0000
     atom:    7    charge:   13.5742    magn:   -4.0351    constr:    0.0000
     atom:    8    charge:   13.5726    magn:    4.0482    constr:    0.0000
     atom:    9    charge:   13.5807    magn:   -3.9511    constr:    0.0000
     atom:   10    charge:   13.5696    magn:   -4.0239    constr:    0.0000
     atom:   11    charge:   13.5777    magn:   -3.9826    constr:    0.0000
     atom:   12    charge:   13.5742    magn:    4.0430    constr:    0.0000
     atom:   13    charge:   13.5777    magn:   -3.9826    constr:    0.0000
     atom:   14    charge:   13.5719    magn:    4.0809    constr:    0.0000
     atom:   15    charge:   13.5828    magn:   -3.9470    constr:    0.0000
     atom:   16    charge:   13.5742    magn:    4.0430    constr:    0.0000
     atom:   17    charge:   13.5828    magn:   -3.9470    constr:    0.0000
     atom:   18    charge:   13.5803    magn:    3.9766    constr:    0.0000
     atom:   19    charge:    9.1207    magn:    0.0182    constr:    0.0000
     atom:   20    charge:    9.1210    magn:   -0.0112    constr:    0.0000
     atom:   21    charge:    9.1208    magn:    0.0447    constr:    0.0000
     atom:   22    charge:    9.1210    magn:   -0.0112    constr:    0.0000
     atom:   23    charge:    9.1213    magn:    0.0143    constr:    0.0000
     atom:   24    charge:    9.1195    magn:   -0.0000    constr:    0.0000
     atom:   25    charge:    9.1208    magn:    0.0447    constr:    0.0000
     atom:   26    charge:    9.1195    magn:   -0.0000    constr:    0.0000
     atom:   27    charge:    9.1212    magn:   -0.0138    constr:    0.0000
     atom:   28    charge:    9.1207    magn:    0.0182    constr:    0.0000
     atom:   29    charge:    9.1210    magn:   -0.0112    constr:    0.0000
     atom:   30    charge:    9.1208    magn:    0.0447    constr:    0.0000
     atom:   31    charge:    9.1210    magn:   -0.0112    constr:    0.0000
     atom:   32    charge:    9.1213    magn:    0.0143    constr:    0.0000
     atom:   33    charge:    9.1195    magn:   -0.0000    constr:    0.0000
     atom:   34    charge:    9.1208    magn:    0.0447    constr:    0.0000
     atom:   35    charge:    9.1195    magn:   -0.0000    constr:    0.0000
     atom:   36    charge:    9.1212    magn:   -0.0138    constr:    0.0000
     atom:   37    charge:    9.1214    magn:    0.0473    constr:    0.0000
     atom:   38    charge:    9.1201    magn:   -0.0150    constr:    0.0000
     atom:   39    charge:    9.1210    magn:   -0.0062    constr:    0.0000
     atom:   40    charge:    9.1201    magn:   -0.0150    constr:    0.0000
     atom:   41    charge:    9.1194    magn:   -0.0292    constr:    0.0000
     atom:   42    charge:    9.1207    magn:    0.0154    constr:    0.0000
     atom:   43    charge:    9.1210    magn:   -0.0062    constr:    0.0000
     atom:   44    charge:    9.1207    magn:    0.0154    constr:    0.0000
     atom:   45    charge:    9.1216    magn:   -0.0081    constr:    0.0000
     atom:   46    charge:    9.1214    magn:    0.0473    constr:    0.0000
     atom:   47    charge:    9.1201    magn:   -0.0150    constr:    0.0000
     atom:   48    charge:    9.1210    magn:   -0.0062    constr:    0.0000
     atom:   49    charge:    9.1201    magn:   -0.0150    constr:    0.0000
     atom:   50    charge:    9.1194    magn:   -0.0292    constr:    0.0000
     atom:   51    charge:    9.1207    magn:    0.0154    constr:    0.0000
     atom:   52    charge:    9.1210    magn:   -0.0062    constr:    0.0000
     atom:   53    charge:    9.1207    magn:    0.0154    constr:    0.0000
     atom:   54    charge:    9.1216    magn:   -0.0081    constr:    0.0000

     End of self-consistent calculation

 ------ SPIN UP ------------

          k = 0.0000 0.0000 0.0000 ( 31747 PWs)   bands (ev):

   -66.7228 -66.7228 -66.7054 -66.7037 -66.7037 -66.6985 -66.6359 -66.6359
   -66.6342 -62.4506 -62.3715 -62.3715 -62.3646 -62.3579 -62.3579 -62.3424
   -62.3424 -62.3233 -35.5151 -35.5151 -35.4917 -35.4916 -35.4884 -35.4755
   -35.4683 -35.4683 -35.4657 -35.4417 -35.4416 -35.4415 -35.4300 -35.4161
   -35.4160 -35.4112 -35.4112 -35.4013 -35.3924 -35.3923 -35.3916 -35.3915
   -35.3826 -35.3767 -35.3538 -35.3538 -35.3501 -31.2918 -31.2769 -31.2535
   -31.2344 -31.2344 -31.2248 -31.1960 -31.1950 -31.1869 -31.1869 -31.1843
   -31.1838 -31.1803 -31.1802 -31.1779 -31.1732 -31.1731 -31.1727 -31.1726
   -31.1699 -31.1683 -31.1682 -31.1643 -31.1476 -31.1461 -31.1460 -31.1284
     5.6112   7.1306   7.1384   7.2125   7.2201   7.3604   7.8487   7.8832
     7.8889   7.9612   8.0794   8.0800   8.1506   8.1731   8.1814   8.2572
     8.2599   8.2844   8.2873   8.5149   8.5425   8.5560   8.5722   8.5922
     8.6284   8.8584   8.8615   8.8681   8.8797   8.8815   8.8817   8.8826
     8.8864   8.8956   8.9114   8.9151   8.9309   8.9436   8.9681   8.9727
     8.9789   9.0810   9.1183   9.1247   9.1249   9.1345   9.1530   9.1637
     9.1800   9.1955   9.2168   9.2710   9.2869   9.2882   9.3076   9.3260
     9.3436   9.3543   9.3650   9.3696   9.3908   9.4009   9.4039   9.4376
     9.4467   9.4495   9.4502   9.4564   9.4660   9.4673   9.4707   9.5754
     9.5768   9.5876   9.5913   9.6197   9.6220   9.6533   9.6665   9.6681
     9.6690   9.6731   9.6745   9.7396   9.7503   9.7687   9.7825   9.8458
     9.8499   9.9127   9.9191   9.9284   9.9391   9.9439  10.0105  10.0377
    10.0523  10.1087  10.1148  10.2112  10.2698  10.2840  10.2916  10.2935
    10.3037  10.3070  10.3126  10.3205  10.3236  10.3266  10.3269  10.3351
    10.3423  10.3436  10.3638  10.3646  10.3670  10.3693  10.3781  10.3815
    10.4000  10.5046  10.5149  10.5170  10.6011  10.6157  10.6217  10.6342
    10.6947  10.7764  10.7875  10.8050  10.8097  10.8133  10.8431  10.8444
    10.8556  10.8637  10.8681  10.8741  10.8769  10.8828  10.8846  10.8974
    10.9088  10.9090  11.0268  11.0284  11.0346  11.0684  11.0732  11.1331
    11.2090  11.2156  11.2281  11.2334  11.2649  11.2748  11.3201  11.3249
    11.3918  11.3938  11.3960  11.3982  11.4078  11.4302  11.4387  11.4392
    11.4858  11.5603  11.5637  11.5874  11.5904  11.5920  11.5977  11.6010
    11.6393  11.6528  11.6856  11.7223  11.7232  11.7483  11.7508  11.7537
    11.8190  11.8534  11.8555  11.8684  11.8784  11.9337  11.9347  11.9427
    11.9453  11.9702  12.0974  12.0982  12.1031  12.1032  12.1352  12.1431
    12.1449  12.1476  12.1483  12.1549  12.1629  12.1719  12.1974  12.1980
    12.2182  12.2439  12.2563  12.2782  12.3096  12.3366  12.3770  12.4238
    12.4277  12.4334  12.4365  12.4486  12.4936  12.5187  12.5262  12.5345
    12.5384  12.5575  12.5628  12.5675  12.5728  12.6241  12.6639  12.6987
    12.7275  12.7283  12.7306  12.8392  12.8418  12.8650  12.9416  13.0054
    13.0417  13.0755  13.1404  13.1858  13.4816  13.5437  13.7532  13.7860
    14.0679  14.1762  14.1805  14.1917  14.2676  14.4109  14.4319  14.4438
    14.6737  14.8432  14.8868  15.0105  15.0122  15.0977  15.2411  15.2695
    15.2906  15.2939  15.3435  15.3446  15.3563  15.3804  15.4797  15.5444
    15.5540  15.5699  15.6637  15.7995  15.8429  15.9017  15.9848  15.9983
    16.0207  16.0358  16.1040  16.1143  16.1368  16.1795  16.1968  16.2237
    16.2311  16.2626  16.2749  16.2828  16.3356  16.3454  16.3667  16.3940
    16.4278  16.5083  16.5533  16.6634  16.6886  16.6891  16.7091  16.9250
    16.9542  17.0268  17.1505  17.1692  17.1940  17.2097  17.2781  17.3221
    17.4608  17.5012  17.7848  17.8827  17.9330  17.9448  17.9755  17.9949
    18.2879  18.2993  18.4934  18.9013  19.0318  19.0331  19.1582  19.1961

[...]

          k =-0.5000-0.5000 0.0000 ( 31612 PWs)   bands (ev):

[...]

 ------ SPIN DOWN ----------

[...]

          k = 0.0000-0.5000-0.5734 ( 31696 PWs)   bands (ev):

[...]

          k =-0.5000-0.5000-0.5734 ( 31672 PWs)   bands (ev):

   -66.7851 -66.6982 -66.6982 -66.6582 -66.6582 -66.6184 -66.5906 -66.5902
   -66.5901 -62.3809 -62.3727 -62.3727 -62.3632 -62.3632 -62.3566 -62.3566
   -62.3519 -62.3159 -35.5471 -35.5228 -35.5101 -35.4666 -35.4666 -35.4579
   -35.4578 -35.4326 -35.4326 -35.4056 -35.4055 -35.4031 -35.4029 -35.3880
   -35.3765 -35.3735 -35.3661 -35.3660 -35.3480 -35.3479 -35.3456 -35.3456
   -35.3332 -35.3224 -35.3098 -35.3097 -35.2991 -31.2283 -31.2283 -31.2266
   -31.2057 -31.2050 -31.2018 -31.2014 -31.1992 -31.1950 -31.1935 -31.1920
   -31.1911 -31.1865 -31.1863 -31.1798 -31.1797 -31.1796 -31.1744 -31.1733
   -31.1732 -31.1728 -31.1638 -31.1637 -31.1615 -31.1545 -31.1390 -31.1369
     6.9006   6.9121   6.9452   6.9766   6.9902   6.9956   7.0178   7.0344
     8.4615   8.4637   8.4699   8.4774   8.4866   8.4899   8.4950   8.4959
     8.4970   8.4991   8.5329   8.5378   8.5402   8.5475   8.5665   8.5672
     8.5678   8.5821   8.5839   8.5985   8.8818   8.8869   8.8969   8.9042
     8.9136   8.9142   8.9350   8.9385   9.0958   9.1063   9.1201   9.1251
     9.1376   9.1403   9.1455   9.1488   9.1520   9.1545   9.1619   9.1629
     9.1650   9.1680   9.1701   9.1715   9.1738   9.1741   9.1748   9.1788
     9.1802   9.1927   9.1929   9.1959   9.1996   9.2038   9.2181   9.2188
     9.2284   9.2424   9.2433   9.2491   9.2628   9.2747   9.2776   9.2808
     9.5370   9.5440   9.5588   9.5621   9.6087   9.6127   9.6221   9.6332
     9.6657   9.6776   9.6933   9.7125   9.7131   9.7249   9.7372   9.7634
     9.8224   9.8272   9.8419   9.8531   9.8711   9.8850   9.8896   9.8963
    10.1355  10.1418  10.1483  10.1521  10.1544  10.1643  10.1747  10.1785
    10.2947  10.3082  10.4432  10.4512  10.4534  10.4590  10.4856  10.4884
    10.4888  10.4895  10.5009  10.5058  10.5060  10.5106  10.5164  10.5184
    10.5214  10.5240  10.5297  10.5356  10.5381  10.5629  10.5930  10.6040
    10.6383  10.6409  10.6421  10.6514  10.6577  10.6595  10.6669  10.6709
    10.6769  10.6862  10.6960  10.7081  10.7315  10.7342  11.0339  11.0449
    11.0837  11.0891  11.1091  11.1221  11.1244  11.1359  11.3758  11.3834
    11.3947  11.3979  11.4332  11.4376  11.4415  11.4550  11.4603  11.4645
    11.4792  11.4876  11.5070  11.5218  11.5286  11.5436  11.5814  11.5869
    11.6456  11.6488  11.6534  11.6634  11.6690  11.6994  11.7136  11.7186
    11.7267  11.7299  11.7467  11.7601  11.7782  11.7850  11.7855  11.7959
    11.8083  11.8134  11.8223  11.8346  11.8603  11.9142  12.0179  12.0302
    12.0397  12.0662  12.0691  12.0850  12.1057  12.1354  12.1367  12.1515
    12.2032  12.2307  12.2439  12.2713  12.2771  12.2808  12.2945  12.3336
    12.3661  12.3671  12.3714  12.3956  12.4165  12.4496  12.4626  12.4706
    12.4730  12.4824  12.5114  12.5258  12.5317  12.5541  12.5571  12.5741
    12.5908  12.6005  12.6257  12.6885  12.7380  12.7651  12.7888  12.8357
    12.8639  12.8682  13.0981  13.1015  13.1689  13.2306  13.2438  13.2469
    13.2508  13.2855  13.2871  13.3347  13.3578  13.4270  13.5111  13.5657
    13.6136  13.6155  13.6186  13.8929  13.9363  13.9414  14.0973  14.1255
    14.1923  14.5518  14.5904  14.6391  14.7396  14.7584  14.8415  14.8742
    15.0103  15.0896  15.1420  15.2181  15.3045  15.4767  15.4891  15.6585
    15.7247  15.7581  15.7783  15.8268  15.8660  16.0101  16.0535  16.0886
    16.1427  16.1584  16.1734  16.1832  16.1936  16.2205  16.2406  16.2429
    16.2738  16.2919  16.3048  16.3463  16.3494  16.4165  16.4324  16.4693
    16.5033  16.5610  16.5717  16.5862  16.6426  16.6670  16.6790  16.6817
    16.6963  16.7039  16.7624  16.8308  16.9104  16.9196  16.9602  17.0173
    17.0223  17.0256  17.6990  17.8028  17.8095  17.8548  19.0519  19.0643
    19.0754  19.1242  19.1268  19.1395  19.1899  19.2152  19.2181  19.2866

     the Fermi energy is    14.8164 ev

!    total energy              =  -33062.56565408 Ry
     Harris-Foulkes estimate   =  -33062.56563986 Ry
     estimated scf accuracy    <       0.00000047 Ry

     total all-electron energy =  -1410574.656028 Ry

     The total energy is the sum of the following terms:

     one-electron contribution =   -1645.76149607 Ry
     hartree contribution      =    1490.00199005 Ry
     xc contribution           =   -1658.73924698 Ry
     ewald contribution        =   -4919.25534656 Ry
     one-center paw contrib.   =  -26328.81155451 Ry

     total magnetization       =     0.62 Bohr mag/cell
     absolute magnetization    =    78.24 Bohr mag/cell

     convergence has been achieved in  22 iterations

     Writing output data file mnau2.save

     General routines

     Parallel routines

   This run was terminated on:  16:50:16   7Mar2019

   JOB DONE.