     Program PWSCF v.6.2 (svn rev. 14038) starts on  7Mar2019 at 20:32: 7

     R & G space division:  proc/nbgrp/npool/nimage =      16
     Waiting for input...
     Reading input from standard input

     Current dimensions of program PWSCF are:
     Max number of different atomic species (ntypx) = 10
     Max number of k-points (npk) =  40000
     Max angular momentum in pseudopotentials (lmaxx) =  3
               file Mn.pbe-spn-kjpaw_psl.0.3.1.UPF: wavefunction(s)  3P 3D renormalized
               file Mn.pbe-spn-kjpaw_psl.0.3.1.UPF: wavefunction(s)  3P 3D renormalized
               file Au.pbe-dn-kjpaw_psl.0.1.UPF: wavefunction(s)  6S 6P 5D renormalized

     Subspace diagonalization in iterative solution of the eigenvalue problem:
     a serial algorithm will be used

     bravais-lattice index     =            0
     lattice parameter (alat)  =      19.2459  a.u.
     unit-cell volume          =    6216.1497 (a.u.)^3
     number of atoms/cell      =           54
     number of atomic types    =            3
     number of electrons       =       666.00
     number of Kohn-Sham states=          400
     kinetic-energy cutoff     =      45.0000  Ry
     charge density cutoff     =     400.0000  Ry
     convergence threshold     =      1.0E-06
     mixing beta               =       0.1000
     number of iterations used =            8  plain     mixing
     Exchange-correlation      = SLA PW PBX PBC ( 1  4  3  4 0 0)

     celldm(1)=  19.245946  celldm(2)=   0.000000  celldm(3)=   0.000000
     celldm(4)=   0.000000  celldm(5)=   0.000000  celldm(6)=   0.000000

     crystal axes: (cart. coord. in units of alat)
               a(1) = (   1.000000   0.000000   0.000000 )
               a(2) = (   0.000000   1.000000   0.000000 )
               a(3) = (   0.000000   0.000000   0.871974 )

     reciprocal axes: (cart. coord. in units 2 pi/alat)
               b(1) = (  1.000000  0.000000  0.000000 )
               b(2) = (  0.000000  1.000000  0.000000 )
               b(3) = (  0.000000  0.000000  1.146823 )

     PseudoPot. # 1 for Mn read from file:
     ./pseudo/Mn.pbe-spn-kjpaw_psl.0.3.1.UPF
     MD5 check sum: 7eef95dd2aae66803482eea66ebeebf1
     Pseudo is Projector augmented-wave + core cor, Zval = 15.0
     Generated using "atomic" code by A. Dal Corso v.5.0.99 svn rev. 10869
     Shape of augmentation charge: PSQ
     Using radial grid of 1187 points,  6 beta functions with:
                l(1) =   0
                l(2) =   0
                l(3) =   1
                l(4) =   1
                l(5) =   2
                l(6) =   2
     Q(r) pseudized with 0 coefficients

     PseudoPot. # 2 for Mn read from file:
     ./pseudo/Mn.pbe-spn-kjpaw_psl.0.3.1.UPF
     MD5 check sum: 7eef95dd2aae66803482eea66ebeebf1
     Pseudo is Projector augmented-wave + core cor, Zval = 15.0
     Generated using "atomic" code by A. Dal Corso v.5.0.99 svn rev. 10869
     Shape of augmentation charge: PSQ
     Using radial grid of 1187 points,  6 beta functions with:
                l(1) =   0
                l(2) =   0
                l(3) =   1
                l(4) =   1
                l(5) =   2
                l(6) =   2
     Q(r) pseudized with 0 coefficients

     PseudoPot. # 3 for Au read from file:
     ./pseudo/Au.pbe-dn-kjpaw_psl.0.1.UPF
     MD5 check sum: 5c9b92683623e7ae2ab3f8e525febab6
     Pseudo is Projector augmented-wave + core cor, Zval = 11.0
     Generated using "atomic" code by A. Dal Corso v.5.0.2 svn rev. 9415
     Shape of augmentation charge: PSQ
     Using radial grid of 1279 points,  6 beta functions with:
                l(1) =   0
                l(2) =   0
                l(3) =   1
                l(4) =   1
                l(5) =   2
                l(6) =   2
     Q(r) pseudized with 0 coefficients

     atomic species   valence    mass     pseudopotential
        Mn1           15.00    54.93800     Mn( 1.00)
        Mn2           15.00    54.93800     Mn( 1.00)
        Au            11.00   196.96600     Au( 1.00)

     Starting magnetic structure
     atomic species   magnetization
        Mn1          0.800
        Mn2         -0.800
        Au           0.000

      2 Sym. Ops. (no inversion) found

   Cartesian axes

     site n.     atom                  positions (alat units)
         1           Mn1 tau(   1) = (   0.0000000   0.0000000   0.0000000  )
         2           Mn1 tau(   2) = (   0.0000000   0.3333300   0.0000000  )
         3           Mn2 tau(   3) = (   0.0000000   0.6666700   0.0000000  )
         4           Mn1 tau(   4) = (   0.3333300   0.0000000   0.0000000  )
         5           Mn2 tau(   5) = (   0.3333300   0.3333300   0.0000000  )
         6           Mn2 tau(   6) = (   0.3333300   0.6666700   0.0000000  )
         7           Mn1 tau(   7) = (   0.6666700   0.0000000   0.0000000  )
         8           Mn2 tau(   8) = (   0.6666700   0.3333300   0.0000000  )
         9           Mn1 tau(   9) = (   0.6666700   0.6666700   0.0000000  )
        10           Mn2 tau(  10) = (   0.1666700   0.1666700   0.4359871  )
        11           Mn2 tau(  11) = (   0.1666700   0.5000000   0.4359871  )
        12           Mn1 tau(  12) = (   0.1666700   0.8333300   0.4359871  )
        13           Mn2 tau(  13) = (   0.5000000   0.1666700   0.4359871  )
        14           Mn1 tau(  14) = (   0.5000000   0.5000000   0.4359871  )
        15           Mn1 tau(  15) = (   0.5000000   0.8333300   0.4359871  )
        16           Mn2 tau(  16) = (   0.8333300   0.1666700   0.4359871  )
        17           Mn1 tau(  17) = (   0.8333300   0.5000000   0.4359871  )
        18           Mn2 tau(  18) = (   0.8333300   0.8333300   0.4359871  )
        19           Au  tau(  19) = (   0.1666700   0.1666700   0.7327374  )
        20           Au  tau(  20) = (   0.1666700   0.5000000   0.7327374  )
        21           Au  tau(  21) = (   0.1666700   0.8333300   0.7327374  )
        22           Au  tau(  22) = (   0.5000000   0.1666700   0.7327374  )
        23           Au  tau(  23) = (   0.5000000   0.5000000   0.7327374  )
        24           Au  tau(  24) = (   0.5000000   0.8333300   0.7327374  )
        25           Au  tau(  25) = (   0.8333300   0.1666700   0.7327374  )
        26           Au  tau(  26) = (   0.8333300   0.5000000   0.7327374  )
        27           Au  tau(  27) = (   0.8333300   0.8333300   0.7327374  )
        28           Au  tau(  28) = (   0.1666700   0.1666700   0.1392369  )
        29           Au  tau(  29) = (   0.1666700   0.5000000   0.1392369  )
        30           Au  tau(  30) = (   0.1666700   0.8333300   0.1392369  )
        31           Au  tau(  31) = (   0.5000000   0.1666700   0.1392369  )
        32           Au  tau(  32) = (   0.5000000   0.5000000   0.1392369  )
        33           Au  tau(  33) = (   0.5000000   0.8333300   0.1392369  )
        34           Au  tau(  34) = (   0.8333300   0.1666700   0.1392369  )
        35           Au  tau(  35) = (   0.8333300   0.5000000   0.1392369  )
        36           Au  tau(  36) = (   0.8333300   0.8333300   0.1392369  )
        37           Au  tau(  37) = (   0.0000000   0.0000000   0.2967503  )
        38           Au  tau(  38) = (   0.0000000   0.3333300   0.2967503  )
        39           Au  tau(  39) = (   0.0000000   0.6666700   0.2967503  )
        40           Au  tau(  40) = (   0.3333300   0.0000000   0.2967503  )
        41           Au  tau(  41) = (   0.3333300   0.3333300   0.2967503  )
        42           Au  tau(  42) = (   0.3333300   0.6666700   0.2967503  )
        43           Au  tau(  43) = (   0.6666700   0.0000000   0.2967503  )
        44           Au  tau(  44) = (   0.6666700   0.3333300   0.2967503  )
        45           Au  tau(  45) = (   0.6666700   0.6666700   0.2967503  )
        46           Au  tau(  46) = (   0.0000000   0.0000000   0.5752240  )
        47           Au  tau(  47) = (   0.0000000   0.3333300   0.5752240  )
        48           Au  tau(  48) = (   0.0000000   0.6666700   0.5752240  )
        49           Au  tau(  49) = (   0.3333300   0.0000000   0.5752240  )
        50           Au  tau(  50) = (   0.3333300   0.3333300   0.5752240  )
        51           Au  tau(  51) = (   0.3333300   0.6666700   0.5752240  )
        52           Au  tau(  52) = (   0.6666700   0.0000000   0.5752240  )
        53           Au  tau(  53) = (   0.6666700   0.3333300   0.5752240  )
        54           Au  tau(  54) = (   0.6666700   0.6666700   0.5752240  )

     number of k points=     8 (tetrahedron method)
                       cart. coord. in units 2pi/alat
        k(    1) = (   0.0000000   0.0000000   0.0000000), wk =   0.1250000
        k(    2) = (   0.0000000   0.0000000  -0.5734114), wk =   0.1250000
        k(    3) = (   0.0000000  -0.5000000   0.0000000), wk =   0.1250000
        k(    4) = (   0.0000000  -0.5000000  -0.5734114), wk =   0.1250000
        k(    5) = (  -0.5000000  -0.5000000   0.0000000), wk =   0.1250000
        k(    6) = (  -0.5000000  -0.5000000  -0.5734114), wk =   0.1250000
        k(    7) = (  -0.5000000   0.0000000   0.0000000), wk =   0.1250000
        k(    8) = (  -0.5000000   0.0000000   0.5734114), wk =   0.1250000

     Check: negative/imaginary core charge=   -0.000006    0.000000

     Initial potential from superposition of free atoms

     starting charge  665.98709, renormalised to  666.00000
     Starting wfc are  504 randomized atomic wfcs
     Checking if some PAW data can be deallocated...

     Self-consistent Calculation

     iteration #  1     ecut=    45.00 Ry     beta= 0.10
     Davidson diagonalization with overlap
     ethr =  1.00E-02,  avg # of iterations =  3.3

     total energy              =  -33047.20248600 Ry
     Harris-Foulkes estimate   =  -33044.05722707 Ry
     estimated scf accuracy    <      26.99234006 Ry

     total magnetization       =     0.01 Bohr mag/cell
     absolute magnetization    =    92.09 Bohr mag/cell

[...]

     total energy              =  -33062.57916179 Ry
     Harris-Foulkes estimate   =  -33062.57915729 Ry
     estimated scf accuracy    <       0.00000103 Ry

[...]

     iteration # 22     ecut=    45.00 Ry     beta= 0.10
     Davidson diagonalization with overlap
     ethr =  1.55E-10,  avg # of iterations =  3.0

     Magnetic moment per site:
     atom:    1    charge:   13.5758    magn:    3.9895    constr:    0.0000
     atom:    2    charge:   13.5722    magn:    4.0603    constr:    0.0000
     atom:    3    charge:   13.5730    magn:   -4.0433    constr:    0.0000
     atom:    4    charge:   13.5741    magn:    4.0268    constr:    0.0000
     atom:    5    charge:   13.5781    magn:   -3.9941    constr:    0.0000
     atom:    6    charge:   13.5719    magn:   -4.0216    constr:    0.0000
     atom:    7    charge:   13.5813    magn:    3.9620    constr:    0.0000
     atom:    8    charge:   13.5832    magn:   -3.9766    constr:    0.0000
     atom:    9    charge:   13.5810    magn:    3.9759    constr:    0.0000
     atom:   10    charge:   13.5814    magn:   -3.9620    constr:    0.0000
     atom:   11    charge:   13.5810    magn:   -3.9759    constr:    0.0000
     atom:   12    charge:   13.5833    magn:    3.9766    constr:    0.0000
     atom:   13    charge:   13.5741    magn:   -4.0267    constr:    0.0000
     atom:   14    charge:   13.5718    magn:    4.0217    constr:    0.0000
     atom:   15    charge:   13.5781    magn:    3.9942    constr:    0.0000
     atom:   16    charge:   13.5758    magn:   -3.9894    constr:    0.0000
     atom:   17    charge:   13.5730    magn:    4.0433    constr:    0.0000
     atom:   18    charge:   13.5722    magn:   -4.0603    constr:    0.0000
     atom:   19    charge:    9.1218    magn:    0.0200    constr:    0.0000
     atom:   20    charge:    9.1203    magn:   -0.0344    constr:    0.0000
     atom:   21    charge:    9.1199    magn:    0.0059    constr:    0.0000
     atom:   22    charge:    9.1204    magn:   -0.0138    constr:    0.0000
     atom:   23    charge:    9.1206    magn:   -0.0157    constr:    0.0000
     atom:   24    charge:    9.1204    magn:    0.0445    constr:    0.0000
     atom:   25    charge:    9.1212    magn:    0.0150    constr:    0.0000
     atom:   26    charge:    9.1211    magn:    0.0129    constr:    0.0000
     atom:   27    charge:    9.1203    magn:    0.0159    constr:    0.0000
     atom:   28    charge:    9.1218    magn:    0.0200    constr:    0.0000
     atom:   29    charge:    9.1203    magn:   -0.0344    constr:    0.0000
     atom:   30    charge:    9.1199    magn:    0.0059    constr:    0.0000
     atom:   31    charge:    9.1204    magn:   -0.0138    constr:    0.0000
     atom:   32    charge:    9.1206    magn:   -0.0157    constr:    0.0000
     atom:   33    charge:    9.1204    magn:    0.0445    constr:    0.0000
     atom:   34    charge:    9.1212    magn:    0.0150    constr:    0.0000
     atom:   35    charge:    9.1211    magn:    0.0129    constr:    0.0000
     atom:   36    charge:    9.1203    magn:    0.0159    constr:    0.0000
     atom:   37    charge:    9.1213    magn:   -0.0150    constr:    0.0000
     atom:   38    charge:    9.1204    magn:   -0.0159    constr:    0.0000
     atom:   39    charge:    9.1212    magn:   -0.0129    constr:    0.0000
     atom:   40    charge:    9.1205    magn:    0.0138    constr:    0.0000
     atom:   41    charge:    9.1203    magn:   -0.0445    constr:    0.0000
     atom:   42    charge:    9.1206    magn:    0.0157    constr:    0.0000
     atom:   43    charge:    9.1219    magn:   -0.0201    constr:    0.0000
     atom:   44    charge:    9.1198    magn:   -0.0059    constr:    0.0000
     atom:   45    charge:    9.1203    magn:    0.0344    constr:    0.0000
     atom:   46    charge:    9.1213    magn:   -0.0150    constr:    0.0000
     atom:   47    charge:    9.1204    magn:   -0.0159    constr:    0.0000
     atom:   48    charge:    9.1212    magn:   -0.0129    constr:    0.0000
     atom:   49    charge:    9.1205    magn:    0.0138    constr:    0.0000
     atom:   50    charge:    9.1203    magn:   -0.0445    constr:    0.0000
     atom:   51    charge:    9.1206    magn:    0.0157    constr:    0.0000
     atom:   52    charge:    9.1219    magn:   -0.0201    constr:    0.0000
     atom:   53    charge:    9.1198    magn:   -0.0059    constr:    0.0000
     atom:   54    charge:    9.1203    magn:    0.0344    constr:    0.0000

     End of self-consistent calculation

 ------ SPIN UP ------------

          k = 0.0000 0.0000 0.0000 ( 31747 PWs)   bands (ev):

   -66.7337 -66.7194 -66.7180 -66.7177 -66.6883 -66.6396 -66.6164 -66.6044
   -66.5824 -62.4041 -62.3890 -62.3862 -62.3714 -62.3546 -62.3439 -62.3381
   -62.3268 -62.3034 -35.5033 -35.4909 -35.4903 -35.4902 -35.4841 -35.4731
   -35.4688 -35.4665 -35.4544 -35.4543 -35.4428 -35.4362 -35.4157 -35.4143
   -35.4110 -35.4030 -35.3853 -35.3808 -35.3764 -35.3662 -35.3561 -35.3399
   -35.3375 -35.3352 -35.3287 -35.3220 -35.3187 -31.2479 -31.2331 -31.2315
   -31.2277 -31.2237 -31.2156 -31.2114 -31.2054 -31.1967 -31.1925 -31.1923
   -31.1894 -31.1873 -31.1847 -31.1817 -31.1788 -31.1731 -31.1717 -31.1639
   -31.1573 -31.1546 -31.1476 -31.1461 -31.1436 -31.1361 -31.1299 -31.1146
     5.6147   7.1355   7.1524   7.2080   7.2176   7.3631   7.8442   7.8867
     7.9114   7.9546   8.0757   8.0944   8.1466   8.1731   8.1913   8.2462
     8.2609   8.2910   8.3068   8.5147   8.5429   8.5634   8.5707   8.5927
     8.6261   8.8522   8.8597   8.8626   8.8788   8.8863   8.8890   8.8972
     8.8979   8.9050   8.9115   8.9205   8.9375   8.9510   8.9662   8.9802
     8.9871   9.0824   9.1197   9.1235   9.1272   9.1337   9.1569   9.1571
     9.1887   9.1975   9.2185   9.2670   9.2875   9.2967   9.3109   9.3391
     9.3447   9.3658   9.3673   9.3692   9.3749   9.4000   9.4037   9.4366
     9.4436   9.4466   9.4532   9.4601   9.4629   9.4645   9.4869   9.5772
     9.5794   9.5869   9.5923   9.5945   9.6227   9.6657   9.6684   9.6705
     9.6720   9.6762   9.6887   9.7429   9.7527   9.7782   9.7942   9.8492
     9.8511   9.9036   9.9125   9.9372   9.9502   9.9510  10.0127  10.0394
    10.0746  10.1178  10.1340  10.1870  10.2828  10.2841  10.2912  10.2981
    10.3039  10.3082  10.3096  10.3129  10.3260  10.3269  10.3378  10.3409
    10.3415  10.3521  10.3526  10.3616  10.3658  10.3707  10.3803  10.3829
    10.4016  10.5119  10.5193  10.5488  10.6047  10.6211  10.6394  10.6444
    10.6919  10.7821  10.7879  10.7943  10.8137  10.8252  10.8311  10.8399
    10.8506  10.8620  10.8637  10.8696  10.8756  10.8789  10.8846  10.8898
    10.9003  10.9176  11.0126  11.0347  11.0739  11.0948  11.1521  11.2096
    11.2197  11.2197  11.2270  11.2327  11.2624  11.3255  11.3284  11.3352
    11.3432  11.3803  11.3863  11.3963  11.4006  11.4091  11.4196  11.4296
    11.4886  11.5038  11.5801  11.5846  11.5939  11.5950  11.5987  11.6114
    11.6618  11.6692  11.7050  11.7239  11.7278  11.7469  11.7531  11.7869
    11.8252  11.8491  11.8578  11.8696  11.8833  11.9154  11.9281  11.9503
    11.9551  12.0265  12.0986  12.0991  12.1045  12.1062  12.1120  12.1359
    12.1414  12.1444  12.1465  12.1489  12.1493  12.1739  12.2054  12.2162
    12.2461  12.2754  12.2867  12.3510  12.3538  12.3598  12.3816  12.4050
    12.4307  12.4344  12.4531  12.4543  12.4991  12.5002  12.5084  12.5225
    12.5502  12.5506  12.5669  12.5845  12.5958  12.6014  12.6371  12.6592
    12.7273  12.7353  12.7735  12.7809  12.8515  12.8873  13.0011  13.0283
    13.1037  13.1366  13.1540  13.1983  13.5489  13.5580  13.7895  13.8512
    13.8582  14.1532  14.1562  14.1858  14.2243  14.3946  14.4137  14.6287
    14.6913  14.7845  14.9234  14.9930  15.0175  15.0874  15.1133  15.2353
    15.2896  15.3016  15.3281  15.4223  15.4307  15.4604  15.4750  15.5392
    15.5994  15.7105  15.7346  15.8026  15.8217  15.8847  15.9109  16.0107
    16.0307  16.0898  16.0978  16.1237  16.1532  16.1635  16.1804  16.1991
    16.2004  16.2248  16.2727  16.2956  16.3357  16.3489  16.4027  16.4204
    16.4397  16.4845  16.5315  16.6294  16.6591  16.6912  16.7584  16.8705
    16.9689  17.0310  17.1353  17.1693  17.2174  17.2477  17.2602  17.3211
    17.4647  17.5270  17.8344  17.8909  17.9301  17.9387  17.9739  18.0908
    18.2607  18.3324  18.4894  18.8839  18.9843  19.0321  19.1670  19.1771

[...]

          k =-0.5000-0.5000 0.0000 ( 31612 PWs)   bands (ev):

[...]

 ------ SPIN DOWN ----------

[...]

          k = 0.0000-0.5000-0.5734 ( 31696 PWs)   bands (ev):

[...]

          k =-0.5000 0.0000 0.5734 ( 31696 PWs)   bands (ev):

   -66.7336 -66.7193 -66.7180 -66.7175 -66.6883 -66.6395 -66.6164 -66.6045
   -66.5825 -62.4042 -62.3889 -62.3863 -62.3715 -62.3546 -62.3439 -62.3381
   -62.3268 -62.3033 -35.5032 -35.4907 -35.4902 -35.4902 -35.4840 -35.4731
   -35.4689 -35.4663 -35.4543 -35.4543 -35.4429 -35.4362 -35.4156 -35.4142
   -35.4110 -35.4030 -35.3853 -35.3807 -35.3763 -35.3661 -35.3560 -35.3399
   -35.3375 -35.3353 -35.3287 -35.3221 -35.3188 -31.2480 -31.2331 -31.2317
   -31.2276 -31.2238 -31.2160 -31.2108 -31.2055 -31.1967 -31.1926 -31.1923
   -31.1894 -31.1874 -31.1848 -31.1818 -31.1788 -31.1731 -31.1718 -31.1640
   -31.1572 -31.1547 -31.1476 -31.1461 -31.1435 -31.1361 -31.1298 -31.1145
     6.5568   6.5708   6.5889   6.6133   7.8457   7.8475   7.8533   7.8867
     7.9010   7.9239   7.9290   7.9312   8.2702   8.2744   8.3004   8.3033
     8.5120   8.5199   8.5340   8.5360   8.6560   8.6562   8.6735   8.6786
     8.6891   8.6914   8.7048   8.7164   8.7201   8.7392   8.7500   8.7503
     8.7652   8.7803   8.7976   8.7983   8.9846   8.9909   9.0035   9.0309
     9.0379   9.0401   9.0461   9.0609   9.2041   9.2097   9.2106   9.2180
     9.2186   9.2265   9.2301   9.2316   9.2448   9.2514   9.2527   9.2586
     9.2661   9.2718   9.2832   9.2951   9.2955   9.3159   9.3967   9.3989
     9.4036   9.4287   9.4436   9.4620   9.4621   9.4672   9.4745   9.4795
     9.4932   9.5024   9.5149   9.5194   9.5290   9.5397   9.5468   9.5598
     9.5651   9.5776   9.7553   9.7570   9.7922   9.7962   9.8020   9.8116
     9.8242   9.8432   9.8477   9.8576   9.8636   9.8653   9.8664   9.8683
     9.9634   9.9729   9.9992  10.0026  10.0172  10.0233  10.0607  10.0623
    10.3684  10.3777  10.3974  10.4012  10.4040  10.4049  10.4335  10.4631
    10.4632  10.4668  10.4734  10.4755  10.4842  10.4879  10.5034  10.5121
    10.5143  10.5271  10.5614  10.5888  10.5900  10.5926  10.6168  10.6202
    10.6286  10.6309  10.6666  10.6685  10.6754  10.6867  10.7228  10.7281
    10.7527  10.7962  10.9074  10.9129  10.9731  10.9738  11.0487  11.0784
    11.1174  11.1212  11.1369  11.1441  11.1531  11.1914  11.2030  11.2087
    11.2123  11.2130  11.3105  11.3179  11.3304  11.3488  11.3599  11.3641
    11.3734  11.3765  11.4055  11.4202  11.4368  11.4825  11.5068  11.5069
    11.5209  11.5290  11.5746  11.5751  11.5848  11.6156  11.6258  11.6306
    11.6408  11.6408  11.7282  11.7307  11.7645  11.7737  11.7988  11.8409
    11.9194  11.9240  11.9349  11.9387  11.9596  11.9639  12.0002  12.0096
    12.0158  12.0323  12.0375  12.0390  12.0632  12.0960  12.0964  12.1195
    12.1429  12.1619  12.1698  12.2290  12.2429  12.2518  12.2696  12.3533
    12.3545  12.4046  12.4167  12.4409  12.4573  12.4615  12.4871  12.4958
    12.5079  12.5327  12.5350  12.5479  12.5570  12.5770  12.5799  12.5956
    12.5964  12.6432  12.6447  12.6489  12.6546  12.6634  12.7102  12.7303
    12.7452  12.8342  12.8490  12.9400  12.9512  12.9820  12.9915  13.0496
    13.0675  13.3383  13.4784  13.5264  13.5854  13.6735  13.7082  13.8052
    13.9156  13.9331  14.0218  14.0899  14.2080  14.3209  14.3660  14.3962
    14.4753  14.5056  14.5372  14.5560  14.5824  14.8004  14.8048  14.9069
    14.9468  15.2261  15.2740  15.3073  15.3460  15.4550  15.5574  15.6083
    15.6379  15.6400  15.7362  15.8307  15.8438  15.8670  15.9194  15.9649
    16.0030  16.0780  16.1141  16.1169  16.1550  16.1824  16.1859  16.2202
    16.2258  16.3055  16.3220  16.3489  16.3514  16.3773  16.3817  16.3925
    16.4963  16.5107  16.5488  16.5825  16.5941  16.6467  16.6909  16.7089
    16.7136  16.8238  16.8473  16.8730  16.8905  16.9631  16.9973  17.0339
    17.0842  17.1287  17.2291  17.2794  18.6126  18.6488  18.7173  18.7427
    18.7736  18.7904  18.8379  18.8456  18.9064  18.9234  18.9355  18.9555

     the Fermi energy is    14.8176 ev

!    total energy              =  -33062.57917543 Ry
     Harris-Foulkes estimate   =  -33062.57916024 Ry
     estimated scf accuracy    <       0.00000049 Ry

     total all-electron energy =  -1410574.669550 Ry

     The total energy is the sum of the following terms:

     one-electron contribution =   -1645.79689066 Ry
     hartree contribution      =    1490.03108879 Ry
     xc contribution           =   -1658.74963138 Ry
     ewald contribution        =   -4919.25534656 Ry
     one-center paw contrib.   =  -26328.80839563 Ry

     total magnetization       =     0.00 Bohr mag/cell
     absolute magnetization    =    78.40 Bohr mag/cell

     convergence has been achieved in  22 iterations

     Writing output data file mnau2.save

     General routines

     Parallel routines

   This run was terminated on:  21:30:25   7Mar2019

   JOB DONE.