     Program PWSCF v.6.3MaX starts on 23Feb2019 at 21:39:42

     R & G space division:  proc/nbgrp/npool/nimage =      16
     Waiting for input...
     Reading input from standard input

     Current dimensions of program PWSCF are:
     Max number of different atomic species (ntypx) = 10
     Max number of k-points (npk) =  40000
     Max angular momentum in pseudopotentials (lmaxx) =  3
     Message from routine read_upf::
     Pseudo file ./pseudo/Mn.pbe-spn-kjpaw_psl.0.3.1.UPF has been successfully fixed on the fly.
To avoid this message in the future you can permanently fix
 your pseudo files following instructions given in:
               file Mn.pbe-spn-kjpaw_psl.0.3.1.UPF: wavefunction(s)  3P 3D renormalized
     Message from routine read_upf::
     Pseudo file ./pseudo/Mn.pbe-spn-kjpaw_psl.0.3.1.UPF has been successfully fixed on the fly.
To avoid this message in the future you can permanently fix
 your pseudo files following instructions given in:
               file Mn.pbe-spn-kjpaw_psl.0.3.1.UPF: wavefunction(s)  3P 3D renormalized
     Message from routine read_upf::
     Pseudo file ./pseudo/Au.pbe-dn-kjpaw_psl.0.1.UPF has been successfully fixed on the fly.
To avoid this message in the future you can permanently fix
 your pseudo files following instructions given in:
               file Au.pbe-dn-kjpaw_psl.0.1.UPF: wavefunction(s)  6S 6P 5D renormalized

     Subspace diagonalization in iterative solution of the eigenvalue problem:
     a serial algorithm will be used

     Found symmetry operation: I + (  0.0000  0.3333  0.0000)
     This is a supercell, fractional translations are disabled

     bravais-lattice index     =            0
     lattice parameter (alat)  =      19.2459  a.u.
     unit-cell volume          =    6216.1497 (a.u.)^3
     number of atoms/cell      =           54
     number of atomic types    =            3
     number of electrons       =       666.00
     number of Kohn-Sham states=          400
     kinetic-energy cutoff     =      45.0000  Ry
     charge density cutoff     =     400.0000  Ry
     convergence threshold     =      1.0E-06
     mixing beta               =       0.1000
     number of iterations used =            8  plain     mixing
     Exchange-correlation      = SLA PW PBX PBC ( 1  4  3  4 0 0)

     celldm(1)=  19.245946  celldm(2)=   0.000000  celldm(3)=   0.000000
     celldm(4)=   0.000000  celldm(5)=   0.000000  celldm(6)=   0.000000

     crystal axes: (cart. coord. in units of alat)
               a(1) = (   1.000000   0.000000   0.000000 )
               a(2) = (   0.000000   1.000000   0.000000 )
               a(3) = (   0.000000   0.000000   0.871974 )

     reciprocal axes: (cart. coord. in units 2 pi/alat)
               b(1) = (  1.000000  0.000000  0.000000 )
               b(2) = (  0.000000  1.000000  0.000000 )
               b(3) = (  0.000000  0.000000  1.146823 )

     PseudoPot. # 1 for Mn read from file:
     ./pseudo/Mn.pbe-spn-kjpaw_psl.0.3.1.UPF
     MD5 check sum: 7eef95dd2aae66803482eea66ebeebf1
     Pseudo is Projector augmented-wave + core cor, Zval = 15.0
     Generated using "atomic" code by A. Dal Corso v.5.0.99 svn rev. 10869
     Shape of augmentation charge: PSQ
     Using radial grid of 1187 points,  6 beta functions with:
                l(1) =   0
                l(2) =   0
                l(3) =   1
                l(4) =   1
                l(5) =   2
                l(6) =   2
     Q(r) pseudized with 0 coefficients

     PseudoPot. # 2 for Mn read from file:
     ./pseudo/Mn.pbe-spn-kjpaw_psl.0.3.1.UPF
     MD5 check sum: 7eef95dd2aae66803482eea66ebeebf1
     Pseudo is Projector augmented-wave + core cor, Zval = 15.0
     Generated using "atomic" code by A. Dal Corso v.5.0.99 svn rev. 10869
     Shape of augmentation charge: PSQ
     Using radial grid of 1187 points,  6 beta functions with:
                l(1) =   0
                l(2) =   0
                l(3) =   1
                l(4) =   1
                l(5) =   2
                l(6) =   2
     Q(r) pseudized with 0 coefficients

     PseudoPot. # 3 for Au read from file:
     ./pseudo/Au.pbe-dn-kjpaw_psl.0.1.UPF
     MD5 check sum: 5c9b92683623e7ae2ab3f8e525febab6
     Pseudo is Projector augmented-wave + core cor, Zval = 11.0
     Generated using "atomic" code by A. Dal Corso v.5.0.2 svn rev. 9415
     Shape of augmentation charge: PSQ
     Using radial grid of 1279 points,  6 beta functions with:
                l(1) =   0
                l(2) =   0
                l(3) =   1
                l(4) =   1
                l(5) =   2
                l(6) =   2
     Q(r) pseudized with 0 coefficients

     atomic species   valence    mass     pseudopotential
        Mn1           15.00    54.93800     Mn( 1.00)
        Mn2           15.00    54.93800     Mn( 1.00)
        Au            11.00   196.96600     Au( 1.00)

     Starting magnetic structure
     atomic species   magnetization
        Mn1          0.800
        Mn2         -0.800
        Au           0.000

      4 Sym. Ops. (no inversion) found

   Cartesian axes

     site n.     atom                  positions (alat units)
         1           Mn1 tau(   1) = (   0.0000000   0.0000000   0.0000000  )
         2           Mn1 tau(   2) = (   0.0000000   0.3333300   0.0000000  )
         3           Mn1 tau(   3) = (   0.0000000   0.6666700   0.0000000  )
         4           Mn2 tau(   4) = (   0.3333300   0.0000000   0.0000000  )
         5           Mn2 tau(   5) = (   0.3333300   0.3333300   0.0000000  )
         6           Mn2 tau(   6) = (   0.3333300   0.6666700   0.0000000  )
         7           Mn1 tau(   7) = (   0.6666700   0.0000000   0.0000000  )
         8           Mn1 tau(   8) = (   0.6666700   0.3333300   0.0000000  )
         9           Mn1 tau(   9) = (   0.6666700   0.6666700   0.0000000  )
        10           Mn2 tau(  10) = (   0.1666700   0.1666700   0.4359871  )
        11           Mn2 tau(  11) = (   0.1666700   0.5000000   0.4359871  )
        12           Mn2 tau(  12) = (   0.1666700   0.8333300   0.4359871  )
        13           Mn1 tau(  13) = (   0.5000000   0.1666700   0.4359871  )
        14           Mn1 tau(  14) = (   0.5000000   0.5000000   0.4359871  )
        15           Mn1 tau(  15) = (   0.5000000   0.8333300   0.4359871  )
        16           Mn2 tau(  16) = (   0.8333300   0.1666700   0.4359871  )
        17           Mn2 tau(  17) = (   0.8333300   0.5000000   0.4359871  )
        18           Mn2 tau(  18) = (   0.8333300   0.8333300   0.4359871  )
        19           Au  tau(  19) = (   0.1666700   0.1666700   0.7327374  )
        20           Au  tau(  20) = (   0.1666700   0.5000000   0.7327374  )
        21           Au  tau(  21) = (   0.1666700   0.8333300   0.7327374  )
        22           Au  tau(  22) = (   0.5000000   0.1666700   0.7327374  )
        23           Au  tau(  23) = (   0.5000000   0.5000000   0.7327374  )
        24           Au  tau(  24) = (   0.5000000   0.8333300   0.7327374  )
        25           Au  tau(  25) = (   0.8333300   0.1666700   0.7327374  )
        26           Au  tau(  26) = (   0.8333300   0.5000000   0.7327374  )
        27           Au  tau(  27) = (   0.8333300   0.8333300   0.7327374  )
        28           Au  tau(  28) = (   0.1666700   0.1666700   0.1392369  )
        29           Au  tau(  29) = (   0.1666700   0.5000000   0.1392369  )
        30           Au  tau(  30) = (   0.1666700   0.8333300   0.1392369  )
        31           Au  tau(  31) = (   0.5000000   0.1666700   0.1392369  )
        32           Au  tau(  32) = (   0.5000000   0.5000000   0.1392369  )
        33           Au  tau(  33) = (   0.5000000   0.8333300   0.1392369  )
        34           Au  tau(  34) = (   0.8333300   0.1666700   0.1392369  )
        35           Au  tau(  35) = (   0.8333300   0.5000000   0.1392369  )
        36           Au  tau(  36) = (   0.8333300   0.8333300   0.1392369  )
        37           Au  tau(  37) = (   0.0000000   0.0000000   0.2967503  )
        38           Au  tau(  38) = (   0.0000000   0.3333300   0.2967503  )
        39           Au  tau(  39) = (   0.0000000   0.6666700   0.2967503  )
        40           Au  tau(  40) = (   0.3333300   0.0000000   0.2967503  )
        41           Au  tau(  41) = (   0.3333300   0.3333300   0.2967503  )
        42           Au  tau(  42) = (   0.3333300   0.6666700   0.2967503  )
        43           Au  tau(  43) = (   0.6666700   0.0000000   0.2967503  )
        44           Au  tau(  44) = (   0.6666700   0.3333300   0.2967503  )
        45           Au  tau(  45) = (   0.6666700   0.6666700   0.2967503  )
        46           Au  tau(  46) = (   0.0000000   0.0000000   0.5752240  )
        47           Au  tau(  47) = (   0.0000000   0.3333300   0.5752240  )
        48           Au  tau(  48) = (   0.0000000   0.6666700   0.5752240  )
        49           Au  tau(  49) = (   0.3333300   0.0000000   0.5752240  )
        50           Au  tau(  50) = (   0.3333300   0.3333300   0.5752240  )
        51           Au  tau(  51) = (   0.3333300   0.6666700   0.5752240  )
        52           Au  tau(  52) = (   0.6666700   0.0000000   0.5752240  )
        53           Au  tau(  53) = (   0.6666700   0.3333300   0.5752240  )
        54           Au  tau(  54) = (   0.6666700   0.6666700   0.5752240  )

     number of k points=     1 (tetrahedron method)
                       cart. coord. in units 2pi/alat
        k(    1) = (   0.0000000   0.0000000   0.0000000), wk =   1.0000000

     Check: negative/imaginary core charge=   -0.000006    0.000000

     Initial potential from superposition of free atoms

     starting charge  665.98709, renormalised to  666.00000
     Starting wfcs are  504 randomized atomic wfcs
     Checking if some PAW data can be deallocated...

     Self-consistent Calculation

     iteration #  1     ecut=    45.00 Ry     beta= 0.10
     Davidson diagonalization with overlap
     ethr =  1.00E-02,  avg # of iterations =  4.0

     total energy              =  -33047.03895288 Ry
     Harris-Foulkes estimate   =  -33043.94466703 Ry
     estimated scf accuracy    <      27.17665921 Ry

     total magnetization       =    -0.00 Bohr mag/cell
     absolute magnetization    =    94.68 Bohr mag/cell

[...]

     total energy              =  -33062.54703801 Ry
     Harris-Foulkes estimate   =  -33062.54703763 Ry
     estimated scf accuracy    <       0.00000153 Ry

[...]

     iteration # 93     ecut=    45.00 Ry     beta= 0.10
     Davidson diagonalization with overlap
     ethr =  2.30E-10,  avg # of iterations =  2.0

     Magnetic moment per site:
     atom:    1    charge:   13.5998    magn:    3.9959    constr:    0.0000
     atom:    2    charge:   13.5954    magn:    4.0035    constr:    0.0000
     atom:    3    charge:   13.5954    magn:    4.0035    constr:    0.0000
     atom:    4    charge:   13.6098    magn:   -3.9401    constr:    0.0000
     atom:    5    charge:   13.6108    magn:   -3.9338    constr:    0.0000
     atom:    6    charge:   13.6108    magn:   -3.9338    constr:    0.0000
     atom:    7    charge:   13.6057    magn:    3.9141    constr:    0.0000
     atom:    8    charge:   13.6058    magn:    3.9113    constr:    0.0000
     atom:    9    charge:   13.6058    magn:    3.9113    constr:    0.0000
     atom:   10    charge:   13.6074    magn:   -3.8821    constr:    0.0000
     atom:   11    charge:   13.6070    magn:   -3.8864    constr:    0.0000
     atom:   12    charge:   13.6074    magn:   -3.8821    constr:    0.0000
     atom:   13    charge:   13.6113    magn:    3.9136    constr:    0.0000
     atom:   14    charge:   13.6151    magn:    3.9065    constr:    0.0000
     atom:   15    charge:   13.6113    magn:    3.9136    constr:    0.0000
     atom:   16    charge:   13.6098    magn:   -3.8974    constr:    0.0000
     atom:   17    charge:   13.6069    magn:   -3.9239    constr:    0.0000
     atom:   18    charge:   13.6098    magn:   -3.8974    constr:    0.0000
     atom:   19    charge:    9.1190    magn:    0.0045    constr:    0.0000
     atom:   20    charge:    9.1206    magn:   -0.0090    constr:    0.0000
     atom:   21    charge:    9.1190    magn:    0.0045    constr:    0.0000
     atom:   22    charge:    9.1189    magn:   -0.0150    constr:    0.0000
     atom:   23    charge:    9.1215    magn:   -0.0228    constr:    0.0000
     atom:   24    charge:    9.1189    magn:   -0.0150    constr:    0.0000
     atom:   25    charge:    9.1206    magn:    0.0652    constr:    0.0000
     atom:   26    charge:    9.1202    magn:    0.0585    constr:    0.0000
     atom:   27    charge:    9.1206    magn:    0.0652    constr:    0.0000
     atom:   28    charge:    9.1190    magn:    0.0045    constr:    0.0000
     atom:   29    charge:    9.1206    magn:   -0.0090    constr:    0.0000
     atom:   30    charge:    9.1190    magn:    0.0045    constr:    0.0000
     atom:   31    charge:    9.1189    magn:   -0.0150    constr:    0.0000
     atom:   32    charge:    9.1215    magn:   -0.0228    constr:    0.0000
     atom:   33    charge:    9.1189    magn:   -0.0150    constr:    0.0000
     atom:   34    charge:    9.1206    magn:    0.0652    constr:    0.0000
     atom:   35    charge:    9.1202    magn:    0.0585    constr:    0.0000
     atom:   36    charge:    9.1206    magn:    0.0652    constr:    0.0000
     atom:   37    charge:    9.1238    magn:   -0.0646    constr:    0.0000
     atom:   38    charge:    9.1214    magn:   -0.0587    constr:    0.0000
     atom:   39    charge:    9.1214    magn:   -0.0587    constr:    0.0000
     atom:   40    charge:    9.1179    magn:   -0.0008    constr:    0.0000
     atom:   41    charge:    9.1181    magn:    0.0088    constr:    0.0000
     atom:   42    charge:    9.1181    magn:    0.0088    constr:    0.0000
     atom:   43    charge:    9.1199    magn:   -0.0144    constr:    0.0000
     atom:   44    charge:    9.1191    magn:   -0.0099    constr:    0.0000
     atom:   45    charge:    9.1191    magn:   -0.0099    constr:    0.0000
     atom:   46    charge:    9.1238    magn:   -0.0646    constr:    0.0000
     atom:   47    charge:    9.1214    magn:   -0.0587    constr:    0.0000
     atom:   48    charge:    9.1214    magn:   -0.0587    constr:    0.0000
     atom:   49    charge:    9.1179    magn:   -0.0008    constr:    0.0000
     atom:   50    charge:    9.1181    magn:    0.0088    constr:    0.0000
     atom:   51    charge:    9.1181    magn:    0.0088    constr:    0.0000
     atom:   52    charge:    9.1199    magn:   -0.0144    constr:    0.0000
     atom:   53    charge:    9.1191    magn:   -0.0099    constr:    0.0000
     atom:   54    charge:    9.1191    magn:   -0.0099    constr:    0.0000

     End of self-consistent calculation

 ------ SPIN UP ------------

          k = 0.0000 0.0000 0.0000 ( 31747 PWs)   bands (ev):

   -66.4921 -66.4918 -66.4726 -66.4236 -66.4232 -66.4155 -66.2847 -66.2844
   -66.2687 -62.2238 -62.2234 -62.2183 -62.1796 -62.1727 -62.1723 -62.1007
   -62.1003 -62.0994 -35.3809 -35.3804 -35.3769 -35.2270 -35.2226 -35.2089
   -35.1953 -35.1902 -35.1819 -35.1814 -35.1691 -35.1659 -35.1537 -35.1532
   -35.1297 -35.1245 -35.1240 -35.1175 -35.1160 -35.1159 -35.1155 -35.0080
   -35.0036 -34.9894 -34.9848 -34.9843 -34.9634 -31.0694 -31.0686 -31.0583
   -31.0510 -31.0498 -31.0497 -31.0461 -31.0454 -31.0428 -31.0423 -31.0404
   -31.0402 -31.0230 -31.0115 -31.0026 -30.9983 -30.9976 -30.9930 -30.9644
   -30.9636 -30.9614 -30.9215 -30.9202 -30.9095 -30.8880 -30.8873 -30.8835
     5.6143   7.1423   7.1683   7.1885   7.2032   7.3447   7.8675   7.8720
     7.9246   7.9390   8.0759   8.1333   8.1363   8.1449   8.1989   8.2177
     8.2563   8.2716   8.3208   8.5232   8.5296   8.5570   8.5805   8.5895
     8.6144   8.8303   8.8529   8.8635   8.8710   8.8842   8.8865   8.8910
     8.9037   8.9063   8.9118   8.9187   8.9260   8.9348   8.9452   8.9699
     9.0162   9.0535   9.0948   9.1135   9.1184   9.1202   9.1485   9.1731
     9.1864   9.2105   9.2191   9.2391   9.2550   9.2910   9.2920   9.3399
     9.3426   9.3501   9.3741   9.3770   9.3802   9.4060   9.4121   9.4212
     9.4281   9.4320   9.4393   9.4438   9.4464   9.4502   9.4940   9.5594
     9.5608   9.5674   9.5691   9.5758   9.6329   9.6365   9.6416   9.6448
     9.6566   9.6661   9.6918   9.7431   9.7654   9.7929   9.7952   9.8353
     9.8371   9.8924   9.9174   9.9194   9.9532   9.9557  10.0273  10.0629
    10.1283  10.1316  10.1391  10.1414  10.2794  10.2815  10.2911  10.2947
    10.2973  10.2981  10.3007  10.3070  10.3086  10.3148  10.3223  10.3246
    10.3364  10.3436  10.3437  10.3502  10.3518  10.3592  10.3634  10.3646
    10.3843  10.5041  10.5061  10.6279  10.6359  10.6456  10.6573  10.6587
    10.7719  10.7763  10.7777  10.7796  10.8128  10.8194  10.8228  10.8333
    10.8366  10.8485  10.8516  10.8654  10.8814  10.8814  10.8875  10.8906
    10.9013  10.9085  11.0079  11.0492  11.0613  11.0976  11.1935  11.2024
    11.2121  11.2172  11.3090  11.3508  11.3517  11.3531  11.3597  11.3796
    11.3828  11.3870  11.3889  11.3896  11.3897  11.3929  11.3985  11.4043
    11.4107  11.5416  11.5473  11.5478  11.5495  11.5634  11.5726  11.5894
    11.6578  11.6700  11.7079  11.7247  11.7273  11.7461  11.7828  11.8061
    11.8188  11.8482  11.8608  11.8720  11.8982  11.9231  11.9328  11.9470
    12.0677  12.0679  12.0753  12.0828  12.0915  12.1004  12.1291  12.1328
    12.1328  12.1358  12.1868  12.1962  12.2652  12.2761  12.2819  12.3636
    12.3913  12.3968  12.4024  12.4222  12.4817  12.4863  12.5387  12.6080
    12.6128  12.6371  12.6390  12.6545  12.6556  12.6648  12.6716  12.6736
    12.6780  12.7364  12.7396  12.7725  12.7856  12.8489  12.8811  12.8878
    12.9059  12.9068  12.9152  12.9464  12.9490  13.0790  13.1826  13.2333
    13.2392  13.2643  13.3655  13.4549  13.4558  13.6183  13.8121  13.8135
    14.0446  14.0462  14.2429  14.3010  14.3416  14.3466  14.5907  14.6007
    14.7706  14.8357  15.0458  15.0486  15.1866  15.2080  15.2151  15.3043
    15.3132  15.3200  15.3226  15.5076  15.5312  15.6059  15.6168  15.7341
    15.8051  15.8331  15.8385  15.8430  15.8480  15.9146  15.9637  16.0647
    16.1548  16.1619  16.1817  16.2431  16.2468  16.2753  16.3009  16.3011
    16.3962  16.4083  16.4164  16.4520  16.4522  16.5143  16.5786  16.5795
    16.5939  16.6074  16.6484  16.6567  16.6612  16.8990  16.9050  17.0321
    17.0448  17.0460  17.1289  17.1672  17.2913  17.2929  17.3060  17.4705
    17.4712  17.6466  17.9011  17.9054  17.9321  17.9468  17.9624  18.2275
    18.2379  18.4187  18.4224  18.9546  19.1305  19.1363  19.1450  19.1459

 ------ SPIN DOWN ----------

          k = 0.0000 0.0000 0.0000 ( 31747 PWs)   bands (ev):

   -66.4009 -66.4006 -66.3996 -66.3794 -66.3463 -66.3460 -66.3182 -66.3176
   -66.3174 -62.2156 -62.2152 -62.2046 -62.1911 -62.1906 -62.1906 -62.0853
   -62.0843 -62.0840 -35.2119 -35.2098 -35.2014 -35.1817 -35.1680 -35.1675
   -35.1659 -35.1389 -35.1330 -35.1326 -35.1310 -35.1281 -35.1255 -35.0873
   -35.0869 -35.0858 -35.0845 -35.0834 -35.0787 -35.0776 -35.0773 -35.0601
   -35.0585 -35.0501 -35.0238 -35.0233 -35.0179 -31.0739 -31.0692 -31.0686
   -31.0660 -31.0630 -31.0527 -31.0473 -31.0462 -31.0308 -31.0306 -31.0287
   -31.0281 -31.0262 -31.0173 -31.0163 -30.9877 -30.9854 -30.9849 -30.9750
   -30.9743 -30.9687 -30.9018 -30.8970 -30.8872 -30.8729 -30.8722 -30.8708
     5.6093   7.1432   7.1694   7.1745   7.1987   7.3376   7.8731   7.8765
     7.9276   7.9284   8.0681   8.1321   8.1353   8.1356   8.1912   8.2200
     8.2559   8.2615   8.3063   8.5343   8.5407   8.5479   8.5815   8.5868
     8.6223   8.8302   8.8530   8.8582   8.8588   8.8882   8.8902   8.8930
     8.9042   8.9049   8.9058   8.9185   8.9206   8.9395   8.9438   8.9726
     9.0152   9.0440   9.1002   9.1018   9.1143   9.1192   9.1475   9.1699
     9.1742   9.2095   9.2166   9.2547   9.2555   9.2776   9.2903   9.3423
     9.3474   9.3486   9.3608   9.3711   9.3795   9.4047   9.4100   9.4214
     9.4271   9.4288   9.4321   9.4384   9.4404   9.4445   9.4950   9.5595
     9.5640   9.5660   9.5683   9.5689   9.6275   9.6346   9.6395   9.6459
     9.6533   9.6544   9.6872   9.7428   9.7440   9.7877   9.7955   9.8340
     9.8351   9.8912   9.9146   9.9164   9.9490   9.9568  10.0244  10.0504
    10.1288  10.1301  10.1392  10.1413  10.2795  10.2807  10.2858  10.2945
    10.2975  10.2988  10.2999  10.3059  10.3072  10.3242  10.3285  10.3323
    10.3333  10.3360  10.3387  10.3440  10.3444  10.3548  10.3561  10.3704
    10.3737  10.5032  10.5044  10.6368  10.6459  10.6514  10.6528  10.6540
    10.7723  10.7732  10.7758  10.7771  10.8127  10.8173  10.8181  10.8324
    10.8366  10.8400  10.8443  10.8640  10.8662  10.8665  10.8734  10.8881
    10.9001  10.9011  11.0039  11.0471  11.0532  11.0957  11.1897  11.1966
    11.2062  11.2099  11.3218  11.3427  11.3550  11.3551  11.3634  11.3778
    11.3782  11.3824  11.3870  11.3889  11.3909  11.3950  11.3973  11.3975
    11.4118  11.5442  11.5451  11.5488  11.5504  11.5559  11.5665  11.5777
    11.6595  11.6621  11.7055  11.7220  11.7257  11.7431  11.7789  11.8137
    11.8186  11.8445  11.8547  11.8653  11.9041  11.9258  11.9333  11.9475
    12.0630  12.0678  12.0759  12.0827  12.0887  12.0962  12.1280  12.1318
    12.1325  12.1355  12.1977  12.1994  12.2776  12.2849  12.2900  12.4057
    12.4256  12.4264  12.4268  12.5281  12.5485  12.6240  12.6283  12.6486
    12.6560  12.6664  12.6682  12.6728  12.6964  12.6983  12.7047  12.7155
    12.7303  12.7566  12.7626  12.7663  12.7801  12.8211  12.8299  12.9017
    12.9135  12.9171  12.9197  12.9631  12.9643  13.0767  13.1911  13.2434
    13.2465  13.2730  13.3937  13.4729  13.4783  13.6064  13.8192  13.8240
    14.0651  14.0652  14.2409  14.2958  14.3342  14.3401  14.5891  14.5925
    14.7791  14.8222  15.0595  15.0640  15.1934  15.2175  15.2550  15.2960
    15.2964  15.3301  15.3386  15.5129  15.5145  15.5817  15.5849  15.7183
    15.8104  15.8180  15.8195  15.8731  15.8782  15.9246  15.9785  16.0304
    16.1712  16.1729  16.1940  16.2408  16.2709  16.2774  16.2879  16.2909
    16.3973  16.4022  16.4288  16.4542  16.4659  16.5134  16.5712  16.5902
    16.6163  16.6186  16.6266  16.6488  16.6504  16.8674  16.8699  17.0263
    17.0497  17.0612  17.1338  17.1646  17.2856  17.2862  17.2953  17.4766
    17.4928  17.6930  17.9023  17.9079  17.9441  17.9482  17.9510  18.2314
    18.2399  18.4287  18.4344  18.9520  19.1264  19.1314  19.1328  19.1373

     the Fermi energy is    15.1972 ev

!    total energy              =  -33062.54703928 Ry
     Harris-Foulkes estimate   =  -33062.54703815 Ry
     estimated scf accuracy    <       0.00000091 Ry

     total all-electron energy =  -1410574.637414 Ry

     The total energy is the sum of the following terms:

     one-electron contribution =   -1649.23445547 Ry
     hartree contribution      =    1493.54443295 Ry
     xc contribution           =   -1658.91883099 Ry
     ewald contribution        =   -4919.25534656 Ry
     one-center paw contrib.   =  -26328.68283922 Ry

     total magnetization       =     0.00 Bohr mag/cell
     absolute magnetization    =    77.61 Bohr mag/cell

     convergence has been achieved in  93 iterations

     Writing output data file mnau2.save/

     General routines

     Parallel routines

   This run was terminated on:  22:24:17  23Feb2019

   JOB DONE.