     Program PWSCF v.6.3MaX starts on 26Mar2019 at 11:43: 3

     R & G space division:  proc/nbgrp/npool/nimage =      16
     Waiting for input...
     Reading input from standard input

     Current dimensions of program PWSCF are:
     Max number of different atomic species (ntypx) = 10
     Max number of k-points (npk) =  40000
     Max angular momentum in pseudopotentials (lmaxx) =  3
     Message from routine read_upf::
     Pseudo file ./pseudo/Mn.pbe-spn-kjpaw_psl.0.3.1.UPF has been successfully fixed on the fly.
To avoid this message in the future you can permanently fix
 your pseudo files following instructions given in:
               file Mn.pbe-spn-kjpaw_psl.0.3.1.UPF: wavefunction(s)  3P 3D renormalized
     Message from routine read_upf::
     Pseudo file ./pseudo/Mn.pbe-spn-kjpaw_psl.0.3.1.UPF has been successfully fixed on the fly.
To avoid this message in the future you can permanently fix
 your pseudo files following instructions given in:
               file Mn.pbe-spn-kjpaw_psl.0.3.1.UPF: wavefunction(s)  3P 3D renormalized
     Message from routine read_upf::
     Pseudo file ./pseudo/Au.pbe-dn-kjpaw_psl.0.1.UPF has been successfully fixed on the fly.
To avoid this message in the future you can permanently fix
 your pseudo files following instructions given in:
               file Au.pbe-dn-kjpaw_psl.0.1.UPF: wavefunction(s)  6S 6P 5D renormalized

     Found symmetry operation: I + (  0.5000  0.0000  0.0000)
     This is a supercell, fractional translations are disabled

     bravais-lattice index     =            0
     lattice parameter (alat)  =      18.0125  a.u.
     unit-cell volume          =    2685.0513 (a.u.)^3
     number of atoms/cell      =           24
     number of atomic types    =            3
     number of electrons       =       296.00
     number of Kohn-Sham states=          178
     kinetic-energy cutoff     =      45.0000  Ry
     charge density cutoff     =     400.0000  Ry
     convergence threshold     =      1.0E-06
     mixing beta               =       0.1000
     number of iterations used =            8  plain     mixing
     Exchange-correlation      = SLA PW PBX PBC ( 1  4  3  4 0 0)

     celldm(1)=  18.012490  celldm(2)=   0.000000  celldm(3)=   0.000000
     celldm(4)=   0.000000  celldm(5)=   0.000000  celldm(6)=   0.000000

     crystal axes: (cart. coord. in units of alat)
               a(1) = (   0.707107  -0.707107   0.000000 )
               a(2) = (  -0.707107  -0.707107   0.000000 )
               a(3) = (   0.176777   0.176777  -0.459443 )

     reciprocal axes: (cart. coord. in units 2 pi/alat)
               b(1) = (  0.707107 -0.707107  0.000000 )
               b(2) = ( -0.707107 -0.707107 -0.544138 )
               b(3) = (  0.000000  0.000000 -2.176550 )

     PseudoPot. # 1 for Mn read from file:
     ./pseudo/Mn.pbe-spn-kjpaw_psl.0.3.1.UPF
     MD5 check sum: 7eef95dd2aae66803482eea66ebeebf1
     Pseudo is Projector augmented-wave + core cor, Zval = 15.0
     Generated using "atomic" code by A. Dal Corso v.5.0.99 svn rev. 10869
     Shape of augmentation charge: PSQ
     Using radial grid of 1187 points,  6 beta functions with:
                l(1) =   0
                l(2) =   0
                l(3) =   1
                l(4) =   1
                l(5) =   2
                l(6) =   2
     Q(r) pseudized with 0 coefficients

     PseudoPot. # 2 for Mn read from file:
     ./pseudo/Mn.pbe-spn-kjpaw_psl.0.3.1.UPF
     MD5 check sum: 7eef95dd2aae66803482eea66ebeebf1
     Pseudo is Projector augmented-wave + core cor, Zval = 15.0
     Generated using "atomic" code by A. Dal Corso v.5.0.99 svn rev. 10869
     Shape of augmentation charge: PSQ
     Using radial grid of 1187 points,  6 beta functions with:
                l(1) =   0
                l(2) =   0
                l(3) =   1
                l(4) =   1
                l(5) =   2
                l(6) =   2
     Q(r) pseudized with 0 coefficients

     PseudoPot. # 3 for Au read from file:
     ./pseudo/Au.pbe-dn-kjpaw_psl.0.1.UPF
     MD5 check sum: 5c9b92683623e7ae2ab3f8e525febab6
     Pseudo is Projector augmented-wave + core cor, Zval = 11.0
     Generated using "atomic" code by A. Dal Corso v.5.0.2 svn rev. 9415
     Shape of augmentation charge: PSQ
     Using radial grid of 1279 points,  6 beta functions with:
                l(1) =   0
                l(2) =   0
                l(3) =   1
                l(4) =   1
                l(5) =   2
                l(6) =   2
     Q(r) pseudized with 0 coefficients

     atomic species   valence    mass     pseudopotential
        Mn1           15.00    54.93800     Mn( 1.00)
        Mn2           15.00    54.93800     Mn( 1.00)
        Au            11.00   196.96600     Au( 1.00)

     Starting magnetic structure
     atomic species   magnetization
        Mn1          1.000
        Mn2         -1.000
        Au           0.000

     Full LDA+U calculation (l_max = 2) with parameters (eV):
     U(  1) =   3.1200   J(  1) =   0.7000   B(  1) =   0.0803
     U(  2) =   3.1200   J(  2) =   0.7000   B(  2) =   0.0803

      2 Sym. Ops. (no inversion) found

   Cartesian axes

     site n.     atom                  positions (alat units)
         1           Mn1 tau(   1) = (   0.3535534  -0.3535534   0.0000000  )
         2           Mn1 tau(   2) = (   0.0000000   0.0000000   0.0000000  )
         3           Mn2 tau(   3) = (   0.0000000  -0.3535534   0.0000000  )
         4           Mn2 tau(   4) = (   0.3535534  -0.7071068   0.0000000  )
         5           Mn2 tau(   5) = (  -0.3535534  -0.3535534   0.0000000  )
         6           Mn2 tau(   6) = (   0.0000000  -0.7071068   0.0000000  )
         7           Mn1 tau(   7) = (  -0.3535534  -0.7071068   0.0000000  )
         8           Mn1 tau(   8) = (   0.0000000  -1.0606602   0.0000000  )
         9           Au  tau(   9) = (  -0.1767767  -0.1767767  -0.1470216  )
        10           Au  tau(  10) = (   0.1767767  -0.5303301  -0.1470216  )
        11           Au  tau(  11) = (  -0.1767767  -0.5303301  -0.1470216  )
        12           Au  tau(  12) = (   0.1767767  -0.8838835  -0.1470216  )
        13           Au  tau(  13) = (  -0.5303301  -0.5303301  -0.1470216  )
        14           Au  tau(  14) = (  -0.1767767  -0.8838835  -0.1470216  )
        15           Au  tau(  15) = (   0.5303301  -0.5303301  -0.1470216  )
        16           Au  tau(  16) = (   0.1767767  -0.1767767  -0.1470216  )
        17           Au  tau(  17) = (   0.3535534  -0.3535534  -0.3124210  )
        18           Au  tau(  18) = (   0.0000000   0.0000000  -0.3124210  )
        19           Au  tau(  19) = (   0.0000000  -0.3535534  -0.3124210  )
        20           Au  tau(  20) = (   0.3535534  -0.7071068  -0.3124210  )
        21           Au  tau(  21) = (  -0.3535534  -0.3535534  -0.3124210  )
        22           Au  tau(  22) = (  -0.0000000  -0.7071068  -0.3124210  )
        23           Au  tau(  23) = (  -0.3535534  -0.7071068  -0.3124210  )
        24           Au  tau(  24) = (   0.0000000  -1.0606602  -0.3124210  )

     number of k points=    30 (tetrahedron method)
                       cart. coord. in units 2pi/alat
        k(    1) = (   0.0000000   0.0000000   0.0000000), wk =   0.0156250
        k(    2) = (   0.0000000   0.0000000  -0.5441376), wk =   0.0312500
        k(    3) = (   0.0000000   0.0000000   1.0882752), wk =   0.0156250
        k(    4) = (  -0.1767767  -0.1767767  -0.1360344), wk =   0.0312500
        k(    5) = (  -0.1767767  -0.1767767  -0.6801720), wk =   0.0312500
        k(    6) = (  -0.1767767  -0.1767767   0.9522408), wk =   0.0312500
        k(    7) = (  -0.1767767  -0.1767767   0.4081032), wk =   0.0312500
        k(    8) = (   0.3535534   0.3535534   0.2720688), wk =   0.0156250
        k(    9) = (   0.3535534   0.3535534  -0.2720688), wk =   0.0312500
        k(   10) = (   0.3535534   0.3535534   1.3603439), wk =   0.0156250
        k(   11) = (   0.1767767  -0.1767767   0.0000000), wk =   0.0312500
        k(   12) = (   0.1767767  -0.1767767  -0.5441376), wk =   0.0625000
        k(   13) = (   0.1767767  -0.1767767   1.0882752), wk =   0.0312500
        k(   14) = (   0.0000000  -0.3535534  -0.1360344), wk =   0.0625000
        k(   15) = (   0.0000000  -0.3535534  -0.6801720), wk =   0.0625000
        k(   16) = (   0.0000000  -0.3535534   0.9522408), wk =   0.0625000
        k(   17) = (   0.0000000  -0.3535534   0.4081032), wk =   0.0625000
        k(   18) = (   0.5303301   0.1767767   0.2720688), wk =   0.0312500
        k(   19) = (   0.5303301   0.1767767  -0.2720688), wk =   0.0625000
        k(   20) = (   0.5303301   0.1767767   1.3603439), wk =   0.0312500
        k(   21) = (  -0.3535534   0.3535534   0.0000000), wk =   0.0156250
        k(   22) = (  -0.3535534   0.3535534  -0.5441376), wk =   0.0312500
        k(   23) = (  -0.3535534   0.3535534   1.0882752), wk =   0.0156250
        k(   24) = (  -0.5303301   0.1767767  -0.1360344), wk =   0.0312500
        k(   25) = (  -0.5303301   0.1767767  -0.6801720), wk =   0.0312500
        k(   26) = (  -0.5303301   0.1767767   0.9522408), wk =   0.0312500
        k(   27) = (  -0.5303301   0.1767767   0.4081032), wk =   0.0312500
        k(   28) = (   0.0000000   0.7071068   0.2720688), wk =   0.0156250
        k(   29) = (   0.0000000   0.7071068  -0.2720688), wk =   0.0312500
        k(   30) = (   0.0000000   0.7071068   1.3603439), wk =   0.0156250

     Check: negative/imaginary core charge=   -0.000006    0.000000

     Initial potential from superposition of free atoms

     starting charge  295.99426, renormalised to  296.00000
     Number of +U iterations with fixed ns =  0
     Starting occupations:
 --- enter write_ns ---
 LDA+U parameters:
U(  1) =   3.1200   J(  1) =   0.7000   B(  1) =   0.0803
U(  2) =   3.1200   J(  2) =   0.7000   B(  2) =   0.0803
atom    1   Tr[ns(na)] (up, down, total) =   5.00000  0.00000  5.00000
   spin  1
    eigenvalues:
  1.000  1.000  1.000  1.000  1.000
    eigenvectors:
  1.000  0.000  0.000  0.000  0.000
  0.000  1.000  0.000  0.000  0.000
  0.000  0.000  1.000  0.000  0.000
  0.000  0.000  0.000  1.000  0.000
  0.000  0.000  0.000  0.000  1.000
    occupations:
  1.000  0.000  0.000  0.000  0.000
  0.000  1.000  0.000  0.000  0.000
  0.000  0.000  1.000  0.000  0.000
  0.000  0.000  0.000  1.000  0.000
  0.000  0.000  0.000  0.000  1.000
   spin  2
    eigenvalues:
  0.000  0.000  0.000  0.000  0.000
    eigenvectors:
  1.000  0.000  0.000  0.000  0.000
  0.000  1.000  0.000  0.000  0.000
  0.000  0.000  1.000  0.000  0.000
  0.000  0.000  0.000  1.000  0.000
  0.000  0.000  0.000  0.000  1.000
    occupations:
  0.000  0.000  0.000  0.000  0.000
  0.000  0.000  0.000  0.000  0.000
  0.000  0.000  0.000  0.000  0.000
  0.000  0.000  0.000  0.000  0.000
  0.000  0.000  0.000  0.000  0.000
atomic mag. moment =     5.000000
atom    2   Tr[ns(na)] (up, down, total) =   5.00000  0.00000  5.00000
   spin  1
    eigenvalues:
  1.000  1.000  1.000  1.000  1.000
    eigenvectors:
  1.000  0.000  0.000  0.000  0.000
  0.000  1.000  0.000  0.000  0.000
  0.000  0.000  1.000  0.000  0.000
[...]
   spin  1
    eigenvalues:
  1.003  1.003  1.003  1.003  1.004
    eigenvectors:
  0.001  0.000  0.000  0.999  0.000
  0.000  0.021  0.978  0.000  0.000
  0.000  0.978  0.021  0.000  0.000
  0.000  0.000  0.000  0.000  1.000
  0.999  0.000  0.000  0.001  0.000
    occupations:
  1.003 -0.000  0.000 -0.000  0.000
 -0.000  1.003 -0.000 -0.000 -0.000
  0.000 -0.000  1.003  0.000  0.000
 -0.000 -0.000  0.000  1.004  0.000
  0.000 -0.000  0.000  0.000  1.003
   spin  2
    eigenvalues:
  0.041  0.052  0.054  0.055  0.071
    eigenvectors:
  0.000  0.962  0.000  0.037  0.001
  0.000  0.020  0.483  0.491  0.005
  0.000  0.018  0.516  0.461  0.005
  0.999  0.000  0.001  0.000  0.000
  0.000  0.000  0.000  0.012  0.988
    occupations:
  0.052  0.000  0.000  0.000  0.000
  0.000  0.055  0.001 -0.000  0.001
  0.000  0.001  0.055  0.000  0.001
  0.000 -0.000  0.000  0.041  0.000
  0.000  0.001  0.001  0.000  0.071
atomic mag. moment =     4.740719
N of occupied +U levels =   42.311860
 --- exit write_ns ---

     total energy              =  -14679.21024739 Ry
     Harris-Foulkes estimate   =  -14669.81659319 Ry
     estimated scf accuracy    <      21.28195085 Ry

     total magnetization       =    -0.00 Bohr mag/cell
     absolute magnetization    =    43.53 Bohr mag/cell

     iteration #  2     ecut=    45.00 Ry     beta= 0.10
     Davidson diagonalization with overlap
     ethr =  7.19E-03,  avg # of iterations =  1.0

[...]

     total energy              =  -14693.94357627 Ry
     Harris-Foulkes estimate   =  -14693.94357380 Ry
     estimated scf accuracy    <       0.00000110 Ry

[...]

     iteration # 22     ecut=    45.00 Ry     beta= 0.10
     Davidson diagonalization with overlap
     ethr =  3.72E-10,  avg # of iterations =  2.1

     Magnetic moment per site:
     atom:    1    charge:   13.5403    magn:    4.2260    constr:    0.0000
     atom:    2    charge:   13.5400    magn:    4.2276    constr:    0.0000
     atom:    3    charge:   13.5404    magn:   -4.2263    constr:    0.0000
     atom:    4    charge:   13.5404    magn:   -4.2263    constr:    0.0000
     atom:    5    charge:   13.5398    magn:   -4.2290    constr:    0.0000
     atom:    6    charge:   13.5395    magn:   -4.2308    constr:    0.0000
     atom:    7    charge:   13.5398    magn:    4.2294    constr:    0.0000
     atom:    8    charge:   13.5398    magn:    4.2294    constr:    0.0000
     atom:    9    charge:    9.0917    magn:   -0.0265    constr:    0.0000
     atom:   10    charge:    9.0917    magn:   -0.0269    constr:    0.0000
     atom:   11    charge:    9.0915    magn:   -0.0163    constr:    0.0000
     atom:   12    charge:    9.0915    magn:   -0.0163    constr:    0.0000
     atom:   13    charge:    9.0916    magn:    0.0260    constr:    0.0000
     atom:   14    charge:    9.0916    magn:    0.0256    constr:    0.0000
     atom:   15    charge:    9.0914    magn:    0.0173    constr:    0.0000
     atom:   16    charge:    9.0914    magn:    0.0173    constr:    0.0000
     atom:   17    charge:    9.0915    magn:   -0.0175    constr:    0.0000
     atom:   18    charge:    9.0914    magn:   -0.0170    constr:    0.0000
     atom:   19    charge:    9.0916    magn:   -0.0258    constr:    0.0000
     atom:   20    charge:    9.0916    magn:   -0.0258    constr:    0.0000
     atom:   21    charge:    9.0916    magn:    0.0165    constr:    0.0000
     atom:   22    charge:    9.0915    magn:    0.0160    constr:    0.0000
     atom:   23    charge:    9.0917    magn:    0.0267    constr:    0.0000
     atom:   24    charge:    9.0917    magn:    0.0267    constr:    0.0000

     End of self-consistent calculation
 --- enter write_ns ---
 LDA+U parameters:
U(  1) =   3.1200   J(  1) =   0.7000   B(  1) =   0.0803
U(  2) =   3.1200   J(  2) =   0.7000   B(  2) =   0.0803
atom    1   Tr[ns(na)] (up, down, total) =   4.96799  0.74656  5.71456
   spin  1
    eigenvalues:
  0.985  0.992  0.993  0.997  1.001
    eigenvectors:
  0.003  0.026  0.000  0.971  0.000
  0.001  0.486  0.500  0.013  0.000
  0.001  0.486  0.500  0.013  0.000
  0.000  0.000  0.000  0.000  1.000
  0.996  0.002  0.000  0.002  0.000
    occupations:
  0.996 -0.000 -0.000 -0.000 -0.001
 -0.000  0.993 -0.000  0.000 -0.000
 -0.000 -0.000  0.993 -0.000 -0.000
 -0.000  0.000 -0.000  1.001 -0.000
 -0.001 -0.000 -0.000 -0.000  0.985
   spin  2
    eigenvalues:
  0.068  0.125  0.149  0.150  0.253
    eigenvectors:
  0.000  0.993  0.002  0.000  0.005
  0.000  0.001  0.497  0.500  0.002
  0.000  0.001  0.497  0.500  0.002
  1.000  0.000  0.000  0.000  0.000
  0.000  0.005  0.004  0.000  0.991
    occupations:
  0.126  0.001  0.001 -0.000  0.009
  0.001  0.150 -0.000  0.000  0.004
  0.001 -0.000  0.150 -0.000  0.004
 -0.000  0.000 -0.000  0.068 -0.000
  0.009  0.004  0.004 -0.000  0.252
atomic mag. moment =     4.221430
atom    2   Tr[ns(na)] (up, down, total) =   4.96815  0.74560  5.71375
   spin  1
    eigenvalues:
  0.985  0.992  0.993  0.997  1.001
    eigenvectors:
  0.003  0.026  0.000  0.971  0.000
  0.001  0.486  0.500  0.013  0.000
  0.001  0.486  0.500  0.013  0.000
  0.000  0.000  0.000  0.000  1.000
  0.996  0.002  0.000  0.002  0.000
    occupations:
  0.996 -0.000 -0.000 -0.000 -0.001
 -0.000  0.993 -0.000  0.000 -0.000
 -0.000 -0.000  0.993 -0.000 -0.000
 -0.000  0.000 -0.000  1.001 -0.000
 -0.001 -0.000 -0.000 -0.000  0.985
   spin  2
    eigenvalues:
  0.069  0.125  0.149  0.151  0.252
    eigenvectors:
  0.000  0.993  0.002  0.000  0.005
  0.000  0.001  0.497  0.500  0.002
  0.000  0.001  0.497  0.500  0.002
  1.000  0.000  0.000  0.000  0.000
  0.000  0.005  0.005  0.000  0.991
    occupations:
  0.126  0.001  0.001 -0.000  0.009
  0.001  0.150 -0.001  0.000  0.005
  0.001 -0.001  0.150 -0.000  0.005
 -0.000  0.000 -0.000  0.069 -0.000
  0.009  0.005  0.005 -0.000  0.251
atomic mag. moment =     4.222548
atom    3   Tr[ns(na)] (up, down, total) =   0.74644  4.96802  5.71446
   spin  1
    eigenvalues:
  0.068  0.126  0.149  0.151  0.253
    eigenvectors:
  0.000  0.992  0.003  0.000  0.005
  0.000  0.002  0.462  0.534  0.002
  0.000  0.002  0.531  0.466  0.002
  1.000  0.000  0.000  0.000  0.000
  0.000  0.004  0.004  0.000  0.992
    occupations:
  0.126  0.001  0.001 -0.000  0.009
  0.001  0.150 -0.000  0.000  0.004
  0.001 -0.000  0.150 -0.000  0.004
 -0.000  0.000 -0.000  0.068  0.000
  0.009  0.004  0.004  0.000  0.252
   spin  2
    eigenvalues:
  0.985  0.992  0.993  0.997  1.001
    eigenvectors:
  0.003  0.025  0.000  0.972  0.000
  0.001  0.496  0.490  0.013  0.000
  0.001  0.476  0.510  0.013  0.000
  0.000  0.000  0.000  0.000  1.000
  0.996  0.002  0.000  0.002  0.000
    occupations:
  0.996 -0.000 -0.000 -0.000 -0.001
 -0.000  0.993 -0.000  0.000 -0.000
 -0.000 -0.000  0.993 -0.000 -0.000
 -0.000  0.000 -0.000  1.001  0.000
 -0.001 -0.000 -0.000  0.000  0.985
atomic mag. moment =    -4.221577
atom    4   Tr[ns(na)] (up, down, total) =   0.74644  4.96802  5.71446
   spin  1
    eigenvalues:
  0.068  0.126  0.149  0.151  0.253
    eigenvectors:
  0.000  0.992  0.003  0.000  0.005
  0.000  0.002  0.531  0.466  0.002
  0.000  0.002  0.462  0.534  0.002
  1.000  0.000  0.000  0.000  0.000
  0.000  0.004  0.004  0.000  0.992
    occupations:
  0.126  0.001  0.001  0.000  0.009
  0.001  0.150 -0.000  0.000  0.004
  0.001 -0.000  0.150 -0.000  0.004
  0.000  0.000 -0.000  0.068 -0.000
  0.009  0.004  0.004 -0.000  0.252
   spin  2
    eigenvalues:
  0.985  0.992  0.993  0.997  1.001
    eigenvectors:
  0.003  0.025  0.000  0.972  0.000
  0.001  0.476  0.510  0.013  0.000
  0.001  0.496  0.490  0.013  0.000
  0.000  0.000  0.000  0.000  1.000
  0.996  0.002  0.000  0.002  0.000
    occupations:
  0.996 -0.000 -0.000  0.000 -0.001
 -0.000  0.993 -0.000  0.000 -0.000
 -0.000 -0.000  0.993 -0.000 -0.000
  0.000  0.000 -0.000  1.001 -0.000
 -0.001 -0.000 -0.000 -0.000  0.985
atomic mag. moment =    -4.221577
atom    5   Tr[ns(na)] (up, down, total) =   0.74400  4.96843  5.71243
   spin  1
    eigenvalues:
  0.068  0.124  0.148  0.151  0.252
    eigenvectors:
  0.000  0.987  0.007  0.000  0.006
  0.000  0.004  0.495  0.500  0.001
  0.000  0.004  0.495  0.500  0.001
  1.000  0.000  0.000  0.000  0.000
  0.000  0.006  0.003  0.000  0.991
    occupations:
  0.125  0.002  0.002 -0.000  0.010
  0.002  0.150 -0.001  0.000  0.003
  0.002 -0.001  0.150 -0.000  0.003
 -0.000  0.000 -0.000  0.068 -0.000
  0.010  0.003  0.003 -0.000  0.251
   spin  2
    eigenvalues:
  0.985  0.992  0.993  0.997  1.001
    eigenvectors:
  0.004  0.027  0.000  0.969  0.000
  0.000  0.486  0.500  0.014  0.000
  0.000  0.486  0.500  0.014  0.000
  0.000  0.000  0.000  0.000  1.000
  0.995  0.001  0.000  0.003  0.000
    occupations:
  0.997 -0.000 -0.000 -0.000 -0.001
 -0.000  0.993 -0.000  0.000 -0.000
 -0.000 -0.000  0.993 -0.000 -0.000
 -0.000  0.000 -0.000  1.001 -0.000
 -0.001 -0.000 -0.000 -0.000  0.985
atomic mag. moment =    -4.224428
atom    6   Tr[ns(na)] (up, down, total) =   0.74297  4.96859  5.71156
   spin  1
    eigenvalues:
  0.069  0.124  0.148  0.152  0.250
    eigenvectors:
  0.000  0.986  0.007  0.000  0.007
  0.000  0.004  0.495  0.500  0.001
  0.000  0.004  0.495  0.500  0.001
  1.000  0.000  0.000  0.000  0.000
  0.000  0.006  0.004  0.000  0.990
    occupations:
  0.125  0.002  0.002 -0.000  0.010
  0.002  0.150 -0.002  0.000  0.004
  0.002 -0.002  0.150 -0.000  0.004
 -0.000  0.000 -0.000  0.069 -0.000
  0.010  0.004  0.004 -0.000  0.249
   spin  2
    eigenvalues:
  0.985  0.993  0.993  0.997  1.001
    eigenvectors:
  0.004  0.027  0.000  0.969  0.000
  0.000  0.486  0.500  0.014  0.000
  0.000  0.486  0.500  0.014  0.000
  0.000  0.000  0.000  0.000  1.000
  0.995  0.002  0.000  0.003  0.000
    occupations:
  0.997 -0.000 -0.000 -0.000 -0.001
 -0.000  0.993 -0.000  0.000 -0.000
 -0.000 -0.000  0.993 -0.000 -0.000
 -0.000  0.000 -0.000  1.001 -0.000
 -0.001 -0.000 -0.000 -0.000  0.985
atomic mag. moment =    -4.225626
atom    7   Tr[ns(na)] (up, down, total) =   4.96846  0.74384  5.71230
   spin  1
    eigenvalues:
  0.985  0.992  0.993  0.997  1.001
    eigenvectors:
  0.004  0.026  0.000  0.970  0.000
  0.000  0.470  0.515  0.014  0.000
  0.000  0.502  0.485  0.013  0.000
  0.000  0.000  0.000  0.000  1.000
  0.995  0.002  0.000  0.003  0.000
    occupations:
  0.997 -0.000 -0.000  0.000 -0.001
 -0.000  0.993 -0.000  0.000 -0.000
 -0.000 -0.000  0.993 -0.000 -0.000
  0.000  0.000 -0.000  1.001 -0.000
 -0.001 -0.000 -0.000 -0.000  0.985
   spin  2
    eigenvalues:
  0.068  0.125  0.148  0.151  0.251
    eigenvectors:
  0.000  0.985  0.009  0.000  0.006
  0.000  0.005  0.506  0.488  0.001
  0.000  0.005  0.482  0.512  0.001
  1.000  0.000  0.000  0.000  0.000
  0.000  0.005  0.003  0.000  0.991
    occupations:
  0.126  0.002  0.002  0.000  0.010
  0.002  0.150 -0.001  0.000  0.004
  0.002 -0.001  0.150 -0.000  0.003
  0.000  0.000 -0.000  0.068 -0.000
  0.010  0.004  0.003 -0.000  0.250
atomic mag. moment =     4.224621
atom    8   Tr[ns(na)] (up, down, total) =   4.96846  0.74384  5.71230
   spin  1
    eigenvalues:
  0.985  0.992  0.993  0.997  1.001
    eigenvectors:
  0.004  0.026  0.000  0.970  0.000
  0.000  0.502  0.485  0.013  0.000
  0.000  0.470  0.515  0.014  0.000
  0.000  0.000  0.000  0.000  1.000
  0.995  0.002  0.000  0.003  0.000
    occupations:
  0.997 -0.000 -0.000 -0.000 -0.001
 -0.000  0.993 -0.000  0.000 -0.000
 -0.000 -0.000  0.993 -0.000 -0.000
 -0.000  0.000 -0.000  1.001  0.000
 -0.001 -0.000 -0.000  0.000  0.985
   spin  2
    eigenvalues:
  0.068  0.125  0.148  0.151  0.251
    eigenvectors:
  0.000  0.985  0.009  0.000  0.006
  0.000  0.005  0.482  0.512  0.001
  0.000  0.005  0.506  0.488  0.001
  1.000  0.000  0.000  0.000  0.000
  0.000  0.005  0.003  0.000  0.991
    occupations:
  0.126  0.002  0.002 -0.000  0.010
  0.002  0.150 -0.001  0.000  0.003
  0.002 -0.001  0.150 -0.000  0.004
 -0.000  0.000 -0.000  0.068  0.000
  0.010  0.003  0.004  0.000  0.250
atomic mag. moment =     4.224621
N of occupied +U levels =   45.705819
 --- exit write_ns ---

 ------ SPIN UP ------------

          k = 0.0000 0.0000 0.0000 ( 13629 PWs)   bands (ev):

   -66.4232 -66.4232 -66.4203 -66.4172 -61.8504 -61.8483 -61.8432 -61.8432
   -35.1973 -35.1971 -35.1941 -35.1919 -35.1605 -35.1598 -35.1548 -35.1510
   -35.1373 -35.1349 -35.1329 -35.1300 -30.6805 -30.6788 -30.6775 -30.6767
   -30.6753 -30.6750 -30.6726 -30.6725 -30.6665 -30.6663 -30.6659 -30.6658
     5.9674   7.6215   7.6223   8.1382   8.1622   8.3804   8.5215   8.5218
     8.7073   8.7080   9.1391   9.1489   9.3703   9.3708   9.4257   9.4261
     9.4676   9.5626   9.5650   9.5719   9.5720   9.5915   9.6162   9.6428
     9.6934   9.8197   9.8546   9.9466   9.9466   9.9963   9.9989  10.0101
    10.0109  10.0223  10.0224  10.0312  10.2286  10.2589  10.2595  10.2729
    10.2770  10.2771  10.2898  10.2999  10.3176  10.3409  10.4557  10.4592
    10.5110  10.5113  10.5788  10.5849  10.6041  10.6059  10.6393  10.7318
    10.8746  10.8747  11.0680  11.0685  11.0901  11.1202  11.1252  11.1773
    11.3322  11.3365  11.3484  11.3486  11.4829  11.5241  11.6499  11.6927
    11.7956  11.7964  11.8264  11.8265  11.9293  11.9352  11.9504  11.9520
    12.1881  12.1886  12.1979  12.1980  12.2367  12.2702  12.3353  12.3424
    12.3464  12.3590  12.4528  12.4581  12.4600  12.5157  12.5242  12.5489
    12.6988  12.6989  12.7214  12.7376  12.7945  12.7948  13.0350  13.0763
    13.0778  13.1998  13.2004  13.2765  13.2768  14.1473  14.2688  14.9190
    15.0912  15.0923  15.6815  16.1919  16.4425  16.4426  16.6109  16.6902
    16.6920  16.7844  16.9638  17.1735  17.2429  17.2445  17.3171  17.3191
    17.4387  17.5900  17.6306  17.8450  17.8484  17.8488  17.8880  18.1634
    18.4555  18.9044  19.3307  19.3792  19.4534  19.4776  19.4843  19.4847
    19.5172  19.9773

[...]

          k =-0.1768-0.1768-0.1360 ( 13673 PWs)   bands (ev):

[...]

 ------ SPIN DOWN ----------

[...]

          k =-0.5303 0.1768 0.4081 ( 13670 PWs)   bands (ev):

[...]

          k = 0.0000 0.7071 1.3603 ( 13696 PWs)   bands (ev):

   -66.4273 -66.4239 -66.4164 -66.4164 -61.8472 -61.8471 -61.8464 -61.8445
   -35.2008 -35.1984 -35.1906 -35.1906 -35.1645 -35.1603 -35.1507 -35.1507
   -35.1391 -35.1362 -35.1299 -35.1297 -30.6778 -30.6778 -30.6772 -30.6761
   -30.6750 -30.6749 -30.6738 -30.6730 -30.6677 -30.6674 -30.6666 -30.6661
     7.8641   7.8648   7.9616   7.9617   8.6019   8.6025   8.6511   8.6515
     8.7885   8.7888   8.8510   8.8514   9.0541   9.0543   9.0686   9.0690
     9.1778   9.1778   9.2014   9.2018   9.3091   9.3097   9.4885   9.4889
     9.5614   9.5619   9.6202   9.6204   9.6543   9.6545   9.6997   9.6998
     9.8296   9.8300  10.0109  10.0111  10.0751  10.0753  10.1090  10.1095
    10.2275  10.2276  10.2508  10.2508  10.5459  10.5463  10.5470  10.5471
    10.9010  10.9012  10.9697  10.9701  10.9790  10.9791  11.0977  11.0979
    11.2034  11.2037  11.2135  11.2135  11.3887  11.3887  11.4554  11.4557
    11.5593  11.5606  11.6139  11.6142  11.7429  11.7432  11.9272  11.9283
    11.9643  11.9653  11.9834  11.9839  12.0271  12.0274  12.0448  12.0451
    12.0652  12.0655  12.0817  12.0817  12.2381  12.2381  12.2545  12.2546
    12.3089  12.3090  12.3560  12.3561  12.4124  12.4130  12.5262  12.5266
    12.6389  12.6391  12.6983  12.6985  12.7078  12.7078  12.8274  12.8278
    13.1381  13.1385  13.3882  13.3885  13.4156  13.4161  13.7992  13.7997
    14.3803  14.3809  14.7580  14.7584  15.8537  15.8545  16.1223  16.1234
    16.4146  16.4152  16.6924  16.6928  17.2240  17.2243  17.2805  17.2815
    17.4796  17.4798  17.4966  17.4968  17.6171  17.6187  17.7074  17.7078
    18.0935  18.0946  18.2745  18.2753  18.3760  18.3772  18.5080  18.5095
    20.6199  20.6201

     the Fermi energy is    15.5602 ev

!    total energy              =  -14693.94358718 Ry
     Harris-Foulkes estimate   =  -14693.94357562 Ry
     estimated scf accuracy    <       0.00000066 Ry

     total all-electron energy =   -626921.539309 Ry

     The total energy is the sum of the following terms:

     one-electron contribution =    -698.47776473 Ry
     hartree contribution      =     651.62474920 Ry
     xc contribution           =    -738.11422333 Ry
     ewald contribution        =   -2207.56121140 Ry
     Hubbard energy            =       0.45739929 Ry
     one-center paw contrib.   =  -11701.87253622 Ry

     total magnetization       =     0.00 Bohr mag/cell
     absolute magnetization    =    36.91 Bohr mag/cell

     convergence has been achieved in  22 iterations

     Writing output data file mnau2.save/

     General routines

     Parallel routines

     Hubbard U routines

   This run was terminated on:  12: 1:48  26Mar2019

   JOB DONE.