     Program PWSCF v.6.3MaX starts on 26Mar2019 at 12:30:47

     R & G space division:  proc/nbgrp/npool/nimage =      16
     Waiting for input...
     Reading input from standard input

     Current dimensions of program PWSCF are:
     Max number of different atomic species (ntypx) = 10
     Max number of k-points (npk) =  40000
     Max angular momentum in pseudopotentials (lmaxx) =  3
     Message from routine read_upf::
     Pseudo file ./pseudo/Mn.pbe-spn-kjpaw_psl.0.3.1.UPF has been successfully fixed on the fly.
To avoid this message in the future you can permanently fix
 your pseudo files following instructions given in:
               file Mn.pbe-spn-kjpaw_psl.0.3.1.UPF: wavefunction(s)  3P 3D renormalized
     Message from routine read_upf::
     Pseudo file ./pseudo/Au.pbe-dn-kjpaw_psl.0.1.UPF has been successfully fixed on the fly.
To avoid this message in the future you can permanently fix
 your pseudo files following instructions given in:
               file Au.pbe-dn-kjpaw_psl.0.1.UPF: wavefunction(s)  6S 6P 5D renormalized

     Found symmetry operation: I + (  0.5000  0.0000  0.0000)
     This is a supercell, fractional translations are disabled

     bravais-lattice index     =            0
     lattice parameter (alat)  =      18.0125  a.u.
     unit-cell volume          =    2685.0513 (a.u.)^3
     number of atoms/cell      =           24
     number of atomic types    =            2
     number of electrons       =       296.00
     number of Kohn-Sham states=          178
     kinetic-energy cutoff     =      45.0000  Ry
     charge density cutoff     =     400.0000  Ry
     convergence threshold     =      1.0E-06
     mixing beta               =       0.1000
     number of iterations used =            8  plain     mixing
     Exchange-correlation      = SLA PW PBX PBC ( 1  4  3  4 0 0)

     celldm(1)=  18.012490  celldm(2)=   0.000000  celldm(3)=   0.000000
     celldm(4)=   0.000000  celldm(5)=   0.000000  celldm(6)=   0.000000

     crystal axes: (cart. coord. in units of alat)
               a(1) = (   0.707107  -0.707107   0.000000 )
               a(2) = (  -0.707107  -0.707107   0.000000 )
               a(3) = (   0.176777   0.176777  -0.459443 )

     reciprocal axes: (cart. coord. in units 2 pi/alat)
               b(1) = (  0.707107 -0.707107  0.000000 )
               b(2) = ( -0.707107 -0.707107 -0.544138 )
               b(3) = (  0.000000  0.000000 -2.176550 )

     PseudoPot. # 1 for Mn read from file:
     ./pseudo/Mn.pbe-spn-kjpaw_psl.0.3.1.UPF
     MD5 check sum: 7eef95dd2aae66803482eea66ebeebf1
     Pseudo is Projector augmented-wave + core cor, Zval = 15.0
     Generated using "atomic" code by A. Dal Corso v.5.0.99 svn rev. 10869
     Shape of augmentation charge: PSQ
     Using radial grid of 1187 points,  6 beta functions with:
                l(1) =   0
                l(2) =   0
                l(3) =   1
                l(4) =   1
                l(5) =   2
                l(6) =   2
     Q(r) pseudized with 0 coefficients

     PseudoPot. # 2 for Au read from file:
     ./pseudo/Au.pbe-dn-kjpaw_psl.0.1.UPF
     MD5 check sum: 5c9b92683623e7ae2ab3f8e525febab6
     Pseudo is Projector augmented-wave + core cor, Zval = 11.0
     Generated using "atomic" code by A. Dal Corso v.5.0.2 svn rev. 9415
     Shape of augmentation charge: PSQ
     Using radial grid of 1279 points,  6 beta functions with:
                l(1) =   0
                l(2) =   0
                l(3) =   1
                l(4) =   1
                l(5) =   2
                l(6) =   2
     Q(r) pseudized with 0 coefficients

     atomic species   valence    mass     pseudopotential
        Mn            15.00    54.93800     Mn( 1.00)
        Au            11.00   196.96600     Au( 1.00)

     Starting magnetic structure
     atomic species   magnetization
        Mn           1.000
        Au           0.000

     Full LDA+U calculation (l_max = 2) with parameters (eV):
     U(  1) =   3.1200   J(  1) =   0.7000   B(  1) =   0.0803

      4 Sym. Ops., with inversion, found

   Cartesian axes

     site n.     atom                  positions (alat units)
         1           Mn  tau(   1) = (   0.3535534  -0.3535534   0.0000000  )
         2           Mn  tau(   2) = (   0.0000000   0.0000000   0.0000000  )
         3           Mn  tau(   3) = (   0.0000000  -0.3535534   0.0000000  )
         4           Mn  tau(   4) = (   0.3535534  -0.7071068   0.0000000  )
         5           Mn  tau(   5) = (  -0.3535534  -0.3535534   0.0000000  )
         6           Mn  tau(   6) = (   0.0000000  -0.7071068   0.0000000  )
         7           Mn  tau(   7) = (  -0.3535534  -0.7071068   0.0000000  )
         8           Mn  tau(   8) = (   0.0000000  -1.0606602   0.0000000  )
         9           Au  tau(   9) = (  -0.1767767  -0.1767767  -0.1470216  )
        10           Au  tau(  10) = (   0.1767767  -0.5303301  -0.1470216  )
        11           Au  tau(  11) = (  -0.1767767  -0.5303301  -0.1470216  )
        12           Au  tau(  12) = (   0.1767767  -0.8838835  -0.1470216  )
        13           Au  tau(  13) = (  -0.5303301  -0.5303301  -0.1470216  )
        14           Au  tau(  14) = (  -0.1767767  -0.8838835  -0.1470216  )
        15           Au  tau(  15) = (   0.5303301  -0.5303301  -0.1470216  )
        16           Au  tau(  16) = (   0.1767767  -0.1767767  -0.1470216  )
        17           Au  tau(  17) = (   0.3535534  -0.3535534  -0.3124210  )
        18           Au  tau(  18) = (   0.0000000   0.0000000  -0.3124210  )
        19           Au  tau(  19) = (   0.0000000  -0.3535534  -0.3124210  )
        20           Au  tau(  20) = (   0.3535534  -0.7071068  -0.3124210  )
        21           Au  tau(  21) = (  -0.3535534  -0.3535534  -0.3124210  )
        22           Au  tau(  22) = (  -0.0000000  -0.7071068  -0.3124210  )
        23           Au  tau(  23) = (  -0.3535534  -0.7071068  -0.3124210  )
        24           Au  tau(  24) = (   0.0000000  -1.0606602  -0.3124210  )

     number of k points=    30 (tetrahedron method)
                       cart. coord. in units 2pi/alat
        k(    1) = (   0.0000000   0.0000000   0.0000000), wk =   0.0156250
        k(    2) = (   0.0000000   0.0000000  -0.5441376), wk =   0.0312500
        k(    3) = (   0.0000000   0.0000000   1.0882752), wk =   0.0156250
        k(    4) = (  -0.1767767  -0.1767767  -0.1360344), wk =   0.0312500
        k(    5) = (  -0.1767767  -0.1767767  -0.6801720), wk =   0.0312500
        k(    6) = (  -0.1767767  -0.1767767   0.9522408), wk =   0.0312500
        k(    7) = (  -0.1767767  -0.1767767   0.4081032), wk =   0.0312500
        k(    8) = (   0.3535534   0.3535534   0.2720688), wk =   0.0156250
        k(    9) = (   0.3535534   0.3535534  -0.2720688), wk =   0.0312500
        k(   10) = (   0.3535534   0.3535534   1.3603439), wk =   0.0156250
        k(   11) = (   0.1767767  -0.1767767   0.0000000), wk =   0.0312500
        k(   12) = (   0.1767767  -0.1767767  -0.5441376), wk =   0.0625000
        k(   13) = (   0.1767767  -0.1767767   1.0882752), wk =   0.0312500
        k(   14) = (   0.0000000  -0.3535534  -0.1360344), wk =   0.0625000
        k(   15) = (   0.0000000  -0.3535534  -0.6801720), wk =   0.0625000
        k(   16) = (   0.0000000  -0.3535534   0.9522408), wk =   0.0625000
        k(   17) = (   0.0000000  -0.3535534   0.4081032), wk =   0.0625000
        k(   18) = (   0.5303301   0.1767767   0.2720688), wk =   0.0312500
        k(   19) = (   0.5303301   0.1767767  -0.2720688), wk =   0.0625000
        k(   20) = (   0.5303301   0.1767767   1.3603439), wk =   0.0312500
        k(   21) = (  -0.3535534   0.3535534   0.0000000), wk =   0.0156250
        k(   22) = (  -0.3535534   0.3535534  -0.5441376), wk =   0.0312500
        k(   23) = (  -0.3535534   0.3535534   1.0882752), wk =   0.0156250
        k(   24) = (  -0.5303301   0.1767767  -0.1360344), wk =   0.0312500
        k(   25) = (  -0.5303301   0.1767767  -0.6801720), wk =   0.0312500
        k(   26) = (  -0.5303301   0.1767767   0.9522408), wk =   0.0312500
        k(   27) = (  -0.5303301   0.1767767   0.4081032), wk =   0.0312500
        k(   28) = (   0.0000000   0.7071068   0.2720688), wk =   0.0156250
        k(   29) = (   0.0000000   0.7071068  -0.2720688), wk =   0.0312500
        k(   30) = (   0.0000000   0.7071068   1.3603439), wk =   0.0156250

     Check: negative/imaginary core charge=   -0.000006    0.000000

     Initial potential from superposition of free atoms

     starting charge  295.99426, renormalised to  296.00000
     Number of +U iterations with fixed ns =  0
     Starting occupations:
 --- enter write_ns ---
 LDA+U parameters:
U(  1) =   3.1200   J(  1) =   0.7000   B(  1) =   0.0803
atom    1   Tr[ns(na)] (up, down, total) =   5.00000  0.00000  5.00000
   spin  1
    eigenvalues:
  1.000  1.000  1.000  1.000  1.000
    eigenvectors:
  1.000  0.000  0.000  0.000  0.000
  0.000  1.000  0.000  0.000  0.000
  0.000  0.000  1.000  0.000  0.000
  0.000  0.000  0.000  1.000  0.000
  0.000  0.000  0.000  0.000  1.000
    occupations:
  1.000  0.000  0.000  0.000  0.000
  0.000  1.000  0.000  0.000  0.000
  0.000  0.000  1.000  0.000  0.000
  0.000  0.000  0.000  1.000  0.000
  0.000  0.000  0.000  0.000  1.000
   spin  2
    eigenvalues:
  0.000  0.000  0.000  0.000  0.000
    eigenvectors:
  1.000  0.000  0.000  0.000  0.000
  0.000  1.000  0.000  0.000  0.000
  0.000  0.000  1.000  0.000  0.000
  0.000  0.000  0.000  1.000  0.000
  0.000  0.000  0.000  0.000  1.000
    occupations:
  0.000  0.000  0.000  0.000  0.000
  0.000  0.000  0.000  0.000  0.000
  0.000  0.000  0.000  0.000  0.000
  0.000  0.000  0.000  0.000  0.000
  0.000  0.000  0.000  0.000  0.000
atomic mag. moment =     5.000000
atom    2   Tr[ns(na)] (up, down, total) =   5.00000  0.00000  5.00000
   spin  1
    eigenvalues:
  1.000  1.000  1.000  1.000  1.000
    eigenvectors:
  1.000  0.000  0.000  0.000  0.000
  0.000  1.000  0.000  0.000  0.000
  0.000  0.000  1.000  0.000  0.000
  0.000  0.000  0.000  1.000  0.000
  0.000  0.000  0.000  0.000  1.000
    occupations:
  1.000  0.000  0.000  0.000  0.000
  0.000  1.000  0.000  0.000  0.000
  0.000  0.000  1.000  0.000  0.000
  0.000  0.000  0.000  1.000  0.000
  0.000  0.000  0.000  0.000  1.000
   spin  2
    eigenvalues:
  0.000  0.000  0.000  0.000  0.000
    eigenvectors:
  1.000  0.000  0.000  0.000  0.000
  0.000  1.000  0.000  0.000  0.000
  0.000  0.000  1.000  0.000  0.000
  0.000  0.000  0.000  1.000  0.000
  0.000  0.000  0.000  0.000  1.000
    occupations:
  0.000  0.000  0.000  0.000  0.000
  0.000  0.000  0.000  0.000  0.000
  0.000  0.000  0.000  0.000  0.000
  0.000  0.000  0.000  0.000  0.000
  0.000  0.000  0.000  0.000  0.000
atomic mag. moment =     5.000000
atom    3   Tr[ns(na)] (up, down, total) =   5.00000  0.00000  5.00000
   spin  1
    eigenvalues:
  1.000  1.000  1.000  1.000  1.000
    eigenvectors:
  1.000  0.000  0.000  0.000  0.000
  0.000  1.000  0.000  0.000  0.000
  0.000  0.000  1.000  0.000  0.000
  0.000  0.000  0.000  1.000  0.000
  0.000  0.000  0.000  0.000  1.000
    occupations:
[...]
atomic mag. moment =     4.743845
atom    8   Tr[ns(na)] (up, down, total) =   5.01495  0.27111  5.28606
   spin  1
    eigenvalues:
  1.003  1.003  1.003  1.003  1.004
    eigenvectors:
  0.000  0.000  0.000  0.999  0.000
  0.000  0.254  0.746  0.000  0.000
  0.000  0.746  0.254  0.000  0.000
  0.000  0.000  0.000  0.000  0.999
  1.000  0.000  0.000  0.000  0.000
    occupations:
  1.003 -0.000  0.000  0.000  0.000
 -0.000  1.003  0.000 -0.000 -0.000
  0.000  0.000  1.003  0.000  0.000
  0.000 -0.000  0.000  1.004  0.000
  0.000 -0.000  0.000  0.000  1.003
   spin  2
    eigenvalues:
  0.039  0.049  0.055  0.055  0.073
    eigenvectors:
  0.000  0.991  0.000  0.009  0.000
  0.000  0.004  0.407  0.588  0.000
  0.000  0.005  0.592  0.403  0.000
  1.000  0.000  0.000  0.000  0.000
  0.000  0.000  0.000  0.001  0.999
    occupations:
  0.049  0.000  0.000  0.000  0.000
  0.000  0.055  0.000  0.000  0.000
  0.000  0.000  0.055 -0.000  0.000
  0.000  0.000 -0.000  0.039 -0.000
  0.000  0.000  0.000 -0.000  0.073
atomic mag. moment =     4.743845
N of occupied +U levels =   42.290630
 --- exit write_ns ---

     total energy              =  -14679.07496887 Ry
     Harris-Foulkes estimate   =  -14669.64521992 Ry
     estimated scf accuracy    <      21.24073975 Ry

     total magnetization       =    41.81 Bohr mag/cell
     absolute magnetization    =    43.54 Bohr mag/cell

     iteration #  2     ecut=    45.00 Ry     beta= 0.10
     Davidson diagonalization with overlap
     ethr =  7.18E-03,  avg # of iterations =  1.0

[...]

     total energy              =  -14693.98750202 Ry
     Harris-Foulkes estimate   =  -14693.98750160 Ry
     estimated scf accuracy    <       0.00000208 Ry

[...]

     iteration # 38     ecut=    45.00 Ry     beta= 0.10
     Davidson diagonalization with overlap
     ethr =  6.87E-10,  avg # of iterations =  1.3

     Magnetic moment per site:
     atom:    1    charge:   13.5489    magn:    4.1644    constr:    0.0000
     atom:    2    charge:   13.5493    magn:    4.1622    constr:    0.0000
     atom:    3    charge:   13.5491    magn:    4.1616    constr:    0.0000
     atom:    4    charge:   13.5491    magn:    4.1616    constr:    0.0000
     atom:    5    charge:   13.5488    magn:    4.1629    constr:    0.0000
     atom:    6    charge:   13.5485    magn:    4.1642    constr:    0.0000
     atom:    7    charge:   13.5491    magn:    4.1616    constr:    0.0000
     atom:    8    charge:   13.5491    magn:    4.1616    constr:    0.0000
     atom:    9    charge:    9.0867    magn:    0.0272    constr:    0.0000
     atom:   10    charge:    9.0869    magn:    0.0284    constr:    0.0000
     atom:   11    charge:    9.0867    magn:    0.0272    constr:    0.0000
     atom:   12    charge:    9.0867    magn:    0.0272    constr:    0.0000
     atom:   13    charge:    9.0870    magn:    0.0274    constr:    0.0000
     atom:   14    charge:    9.0871    magn:    0.0283    constr:    0.0000
     atom:   15    charge:    9.0868    magn:    0.0275    constr:    0.0000
     atom:   16    charge:    9.0868    magn:    0.0275    constr:    0.0000
     atom:   17    charge:    9.0871    magn:    0.0283    constr:    0.0000
     atom:   18    charge:    9.0870    magn:    0.0274    constr:    0.0000
     atom:   19    charge:    9.0867    magn:    0.0272    constr:    0.0000
     atom:   20    charge:    9.0867    magn:    0.0272    constr:    0.0000
     atom:   21    charge:    9.0867    magn:    0.0272    constr:    0.0000
     atom:   22    charge:    9.0869    magn:    0.0284    constr:    0.0000
     atom:   23    charge:    9.0868    magn:    0.0275    constr:    0.0000
     atom:   24    charge:    9.0868    magn:    0.0275    constr:    0.0000

     End of self-consistent calculation
 --- enter write_ns ---
 LDA+U parameters:
U(  1) =   3.1200   J(  1) =   0.7000   B(  1) =   0.0803
atom    1   Tr[ns(na)] (up, down, total) =   4.96475  0.79462  5.75938
   spin  1
    eigenvalues:
  0.983  0.992  0.992  0.996  1.002
    eigenvectors:
  0.000  0.000  0.003  0.997  0.000
  0.001  0.500  0.498  0.001  0.000
  0.001  0.500  0.498  0.001  0.000
  0.000  0.000  0.000  0.000  1.000
  0.998  0.000  0.002  0.000  0.000
    occupations:
  0.996 -0.000 -0.000 -0.000 -0.000
 -0.000  0.992  0.000  0.000 -0.000
 -0.000  0.000  0.992 -0.000 -0.000
 -0.000  0.000 -0.000  1.002 -0.000
 -0.000 -0.000 -0.000 -0.000  0.983
   spin  2
    eigenvalues:
  0.066  0.148  0.151  0.155  0.274
    eigenvectors:
  0.000  0.917  0.083  0.000  0.000
  0.000  0.041  0.459  0.500  0.000
  0.000  0.041  0.459  0.500  0.000
  1.000  0.000  0.000  0.000  0.000
  0.000  0.000  0.000  0.000  1.000
    occupations:
  0.149  0.000  0.000 -0.000 -0.001
  0.000  0.153 -0.002 -0.000  0.001
  0.000 -0.002  0.153  0.000  0.001
 -0.000 -0.000  0.000  0.066 -0.000
 -0.001  0.001  0.001 -0.000  0.274
atomic mag. moment =     4.170131
atom    2   Tr[ns(na)] (up, down, total) =   4.96456  0.79539  5.75996
   spin  1
    eigenvalues:
  0.982  0.992  0.992  0.996  1.002
    eigenvectors:
  0.000  0.000  0.004  0.996  0.000
  0.001  0.500  0.498  0.002  0.000
  0.001  0.500  0.498  0.002  0.000
  0.000  0.000  0.000  0.000  1.000
  0.999  0.000  0.001  0.000  0.000
    occupations:
  0.996 -0.000 -0.000 -0.000 -0.000
 -0.000  0.992  0.000  0.000 -0.000
 -0.000  0.000  0.992 -0.000 -0.000
 -0.000  0.000 -0.000  1.002 -0.000
 -0.000 -0.000 -0.000 -0.000  0.982
   spin  2
    eigenvalues:
  0.065  0.150  0.151  0.152  0.276
    eigenvectors:
  0.000  0.324  0.676  0.000  0.000
  0.000  0.338  0.162  0.500  0.000
  0.000  0.338  0.162  0.500  0.000
  1.000  0.000  0.000  0.000  0.000
  0.000  0.000  0.000  0.000  1.000
    occupations:
  0.151  0.000  0.000 -0.000  0.001
  0.000  0.151 -0.001 -0.000  0.000
  0.000 -0.001  0.151  0.000  0.000
 -0.000 -0.000  0.000  0.065 -0.000
  0.001  0.000  0.000 -0.000  0.276
atomic mag. moment =     4.169169
atom    3   Tr[ns(na)] (up, down, total) =   4.96450  0.79623  5.76073
   spin  1
    eigenvalues:
  0.983  0.992  0.992  0.996  1.002
    eigenvectors:
  0.000  0.000  0.002  0.998  0.000
  0.001  0.494  0.505  0.001  0.000
  0.001  0.506  0.492  0.001  0.000
  0.000  0.000  0.000  0.000  1.000
  0.998  0.000  0.002  0.000  0.000
    occupations:
  0.996 -0.000 -0.000 -0.000 -0.000
 -0.000  0.992  0.000  0.000 -0.000
 -0.000  0.000  0.992 -0.000 -0.000
 -0.000  0.000 -0.000  1.002 -0.000
 -0.000 -0.000 -0.000 -0.000  0.983
   spin  2
    eigenvalues:
  0.065  0.150  0.151  0.154  0.276
    eigenvectors:
  0.000  0.319  0.681  0.000  0.000
  0.000  0.335  0.159  0.506  0.000
  0.000  0.346  0.160  0.494  0.000
  1.000  0.000  0.000  0.000  0.000
  0.000  0.000  0.000  0.000  1.000
    occupations:
  0.151  0.000  0.000  0.000 -0.001
  0.000  0.152 -0.002 -0.000  0.000
  0.000 -0.002  0.152  0.000  0.000
  0.000 -0.000  0.000  0.065  0.000
 -0.001  0.000  0.000  0.000  0.276
atomic mag. moment =     4.168270
atom    4   Tr[ns(na)] (up, down, total) =   4.96450  0.79623  5.76073
   spin  1
    eigenvalues:
  0.983  0.992  0.992  0.996  1.002
    eigenvectors:
  0.000  0.000  0.002  0.998  0.000
  0.001  0.506  0.492  0.001  0.000
  0.001  0.494  0.505  0.001  0.000
  0.000  0.000  0.000  0.000  1.000
  0.998  0.000  0.002  0.000  0.000
    occupations:
  0.996 -0.000 -0.000  0.000 -0.000
 -0.000  0.992  0.000  0.000 -0.000
 -0.000  0.000  0.992 -0.000 -0.000
  0.000  0.000 -0.000  1.002  0.000
 -0.000 -0.000 -0.000  0.000  0.983
   spin  2
    eigenvalues:
  0.065  0.150  0.151  0.154  0.276
    eigenvectors:
  0.000  0.319  0.681  0.000  0.000
  0.000  0.346  0.160  0.494  0.000
  0.000  0.335  0.159  0.506  0.000
  1.000  0.000  0.000  0.000  0.000
  0.000  0.000  0.000  0.000  1.000
    occupations:
  0.151  0.000  0.000 -0.000 -0.001
  0.000  0.152 -0.002 -0.000  0.000
  0.000 -0.002  0.152  0.000  0.000
 -0.000 -0.000  0.000  0.065 -0.000
 -0.001  0.000  0.000 -0.000  0.276
atomic mag. moment =     4.168270
atom    5   Tr[ns(na)] (up, down, total) =   4.96477  0.79450  5.75926
   spin  1
    eigenvalues:
  0.983  0.992  0.992  0.996  1.002
    eigenvectors:
  0.000  0.000  0.002  0.997  0.000
  0.001  0.500  0.498  0.001  0.000
  0.001  0.500  0.498  0.001  0.000
  0.000  0.000  0.000  0.000  1.000
  0.998  0.000  0.001  0.000  0.000
    occupations:
  0.996 -0.000 -0.000 -0.000 -0.000
 -0.000  0.992  0.000  0.000 -0.000
 -0.000  0.000  0.992 -0.000 -0.000
 -0.000  0.000 -0.000  1.002 -0.000
 -0.000 -0.000 -0.000 -0.000  0.983
   spin  2
    eigenvalues:
  0.065  0.150  0.151  0.153  0.275
    eigenvectors:
  0.000  0.271  0.729  0.000  0.000
  0.000  0.365  0.135  0.500  0.000
  0.000  0.365  0.135  0.500  0.000
  1.000  0.000  0.000  0.000  0.000
  0.000  0.000  0.000  0.000  1.000
    occupations:
  0.151  0.000  0.000 -0.000  0.001
  0.000  0.152 -0.001  0.000  0.000
  0.000 -0.001  0.152 -0.000  0.000
 -0.000  0.000 -0.000  0.065 -0.000
  0.001  0.000  0.000 -0.000  0.275
atomic mag. moment =     4.170269
atom    6   Tr[ns(na)] (up, down, total) =   4.96479  0.79451  5.75930
   spin  1
    eigenvalues:
  0.983  0.992  0.992  0.996  1.002
    eigenvectors:
  0.000  0.000  0.001  0.998  0.000
  0.001  0.500  0.498  0.001  0.000
  0.001  0.500  0.498  0.001  0.000
  0.000  0.000  0.000  0.000  1.000
  0.998  0.000  0.002  0.000  0.000
    occupations:
  0.996 -0.000 -0.000 -0.000 -0.000
 -0.000  0.992  0.000  0.000 -0.000
 -0.000  0.000  0.992 -0.000 -0.000
 -0.000  0.000 -0.000  1.002 -0.000
 -0.000 -0.000 -0.000 -0.000  0.983
   spin  2
    eigenvalues:
  0.066  0.148  0.151  0.156  0.274
    eigenvectors:
  0.000  0.861  0.139  0.000  0.000
  0.000  0.069  0.431  0.500  0.000
  0.000  0.069  0.431  0.500  0.000
  1.000  0.000  0.000  0.000  0.000
  0.000  0.000  0.000  0.000  1.000
    occupations:
  0.149  0.001  0.001 -0.000 -0.001
  0.001  0.153 -0.003 -0.000  0.000
  0.001 -0.003  0.153  0.000  0.000
 -0.000 -0.000  0.000  0.066 -0.000
 -0.001  0.000  0.000 -0.000  0.274
atomic mag. moment =     4.170286
atom    7   Tr[ns(na)] (up, down, total) =   4.96450  0.79623  5.76073
   spin  1
    eigenvalues:
  0.983  0.992  0.992  0.996  1.002
    eigenvectors:
  0.000  0.000  0.002  0.998  0.000
  0.001  0.506  0.492  0.001  0.000
  0.001  0.494  0.505  0.001  0.000
  0.000  0.000  0.000  0.000  1.000
  0.998  0.000  0.002  0.000  0.000
    occupations:
  0.996 -0.000 -0.000  0.000 -0.000
 -0.000  0.992  0.000  0.000 -0.000
 -0.000  0.000  0.992 -0.000 -0.000
  0.000  0.000 -0.000  1.002  0.000
 -0.000 -0.000 -0.000  0.000  0.983
   spin  2
    eigenvalues:
  0.065  0.150  0.151  0.154  0.276
    eigenvectors:
  0.000  0.319  0.681  0.000  0.000
  0.000  0.346  0.160  0.494  0.000
  0.000  0.335  0.159  0.506  0.000
  1.000  0.000  0.000  0.000  0.000
  0.000  0.000  0.000  0.000  1.000
    occupations:
  0.151  0.000  0.000 -0.000 -0.001
  0.000  0.152 -0.002 -0.000  0.000
  0.000 -0.002  0.152  0.000  0.000
 -0.000 -0.000  0.000  0.065 -0.000
 -0.001  0.000  0.000 -0.000  0.276
atomic mag. moment =     4.168270
atom    8   Tr[ns(na)] (up, down, total) =   4.96450  0.79623  5.76073
   spin  1
    eigenvalues:
  0.983  0.992  0.992  0.996  1.002
    eigenvectors:
  0.000  0.000  0.002  0.998  0.000
  0.001  0.494  0.505  0.001  0.000
  0.001  0.506  0.492  0.001  0.000
  0.000  0.000  0.000  0.000  1.000
  0.998  0.000  0.002  0.000  0.000
    occupations:
  0.996 -0.000 -0.000 -0.000 -0.000
 -0.000  0.992  0.000  0.000 -0.000
 -0.000  0.000  0.992 -0.000 -0.000
 -0.000  0.000 -0.000  1.002 -0.000
 -0.000 -0.000 -0.000 -0.000  0.983
   spin  2
    eigenvalues:
  0.065  0.150  0.151  0.154  0.276
    eigenvectors:
  0.000  0.319  0.681  0.000  0.000
  0.000  0.335  0.159  0.506  0.000
  0.000  0.346  0.160  0.494  0.000
  1.000  0.000  0.000  0.000  0.000
  0.000  0.000  0.000  0.000  1.000
    occupations:
  0.151  0.000  0.000  0.000 -0.001
  0.000  0.152 -0.002 -0.000  0.000
  0.000 -0.002  0.152  0.000  0.000
  0.000 -0.000  0.000  0.065  0.000
 -0.001  0.000  0.000  0.000  0.276
atomic mag. moment =     4.168270
N of occupied +U levels =   46.080820
 --- exit write_ns ---

 ------ SPIN UP ------------

          k = 0.0000 0.0000 0.0000 ( 13629 PWs)   bands (ev):

   -66.3215 -66.3202 -66.3164 -66.3156 -66.3151 -66.3143 -66.3143 -66.3143
   -35.0945 -35.0929 -35.0890 -35.0885 -35.0884 -35.0883 -35.0881 -35.0876
   -35.0520 -35.0516 -35.0504 -35.0485 -35.0468 -35.0456 -35.0431 -35.0428
   -35.0427 -35.0423 -35.0408 -35.0407 -35.0381 -35.0360 -35.0355 -35.0351
     5.8827   7.4904   7.4906   8.0235   8.0236   8.1478   8.2494   8.2497
     8.6814   8.6819   8.9148   8.9148   9.2291   9.2292   9.2801   9.2802
     9.3168   9.3169   9.4302   9.4564   9.4566   9.4902   9.5017   9.5020
     9.5470   9.5635   9.6010   9.6646   9.6654   9.7132   9.7138   9.7893
     9.7897   9.8594   9.8839   9.8842   9.9296   9.9297   9.9533   9.9816
     9.9824  10.1036  10.1501  10.1923  10.2281  10.2282  10.2520  10.3788
    10.3803  10.3900  10.3912  10.4251  10.4264  10.4556  10.4561  10.4627
    10.4630  10.4742  10.4744  10.6257  10.6271  10.6297  10.6313  10.6319
    10.8398  10.8401  10.9623  10.9653  11.2439  11.2464  11.2961  11.2976
    11.3657  11.4509  11.4684  11.4749  11.5496  11.5502  11.7538  11.7549
    11.7832  11.7834  11.8085  11.8095  11.8663  11.8672  11.8816  11.9608
    11.9620  12.0140  12.0318  12.0318  12.0807  12.0812  12.2312  12.2514
    12.2523  12.2824  12.2831  12.3167  12.4731  12.4749  12.4794  12.4861
    12.5187  12.5610  12.5621  12.6162  12.6166  12.6555  12.6558  12.6729
    12.7090  12.7101  12.8368  12.8378  12.8775  12.8785  13.0605  13.0608
    13.0937  13.0948  13.2228  13.2229  13.3973  13.3976  13.4053  13.4614
    13.4623  14.0489  14.9886  14.9893  15.9034  15.9035  17.2048  17.3665
    17.7698  18.1549  18.7929  18.7931  18.8528  18.8529  18.9185  19.2109
    19.2118  19.2131

[...]

          k =-0.1768-0.1768-0.1360 ( 13673 PWs)   bands (ev):

[...]

 ------ SPIN DOWN ----------

[...]

          k =-0.5303 0.1768 0.4081 ( 13670 PWs)   bands (ev):

[...]

          k = 0.0000 0.7071 1.3603 ( 13696 PWs)   bands (ev):

   -61.7959 -61.7952 -61.7913 -61.7912 -61.7910 -61.7910 -61.7905 -61.7903
   -30.6301 -30.6298 -30.6297 -30.6295 -30.6264 -30.6260 -30.6230 -30.6230
   -30.6223 -30.6222 -30.6221 -30.6221 -30.6206 -30.6206 -30.6200 -30.6199
   -30.6186 -30.6186 -30.6181 -30.6181 -30.6120 -30.6119 -30.6118 -30.6117
     8.0615   8.0616   8.0621   8.0622   8.9449   8.9450   8.9453   8.9454
     8.9524   8.9525   8.9532   8.9533   9.3047   9.3048   9.3048   9.3049
     9.5301   9.5301   9.5309   9.5309   9.7538   9.7538   9.7540   9.7540
     9.8314   9.8316   9.8319   9.8320   9.8631   9.8633   9.8639   9.8640
    10.1450  10.1451  10.1452  10.1452  10.2290  10.2292  10.2292  10.2293
    10.4395  10.4395  10.4399  10.4401  11.0595  11.0595  11.0597  11.0597
    11.1781  11.1781  11.1781  11.1782  11.2658  11.2658  11.2658  11.2659
    11.3985  11.3986  11.3986  11.3987  11.5748  11.5750  11.5751  11.5752
    12.1105  12.1107  12.1108  12.1109  12.1148  12.1149  12.1152  12.1154
    12.2882  12.2883  12.2883  12.2883  12.5711  12.5711  12.5711  12.5711
    12.5784  12.5784  12.5792  12.5792  13.0708  13.0708  13.0716  13.0717
    13.1598  13.1598  13.1600  13.1600  14.0016  14.0021  14.0040  14.0045
    15.0464  15.0471  15.0491  15.0495  16.3642  16.3643  16.3661  16.3661
    16.9996  17.0010  17.0016  17.0025  17.2211  17.2215  17.2216  17.2217
    17.3653  17.3658  17.3689  17.3695  17.3860  17.3865  17.3868  17.3874
    17.5321  17.5327  17.5337  17.5345  17.7252  17.7262  17.7284  17.7294
    17.7552  17.7560  17.7575  17.7584  18.3859  18.3862  18.3879  18.3884
    18.4914  18.4920  18.4952  18.4960  18.7967  18.7971  18.8004  18.8007
    21.0805  21.0808

     the Fermi energy is    15.4615 ev

!    total energy              =  -14693.98750172 Ry
     Harris-Foulkes estimate   =  -14693.98750068 Ry
     estimated scf accuracy    <       0.00000087 Ry

     total all-electron energy =   -626921.583224 Ry

     The total energy is the sum of the following terms:

     one-electron contribution =    -698.94224364 Ry
     hartree contribution      =     651.89427872 Ry
     xc contribution           =    -738.03021890 Ry
     ewald contribution        =   -2207.56121140 Ry
     Hubbard energy            =       0.48023843 Ry
     one-center paw contrib.   =  -11701.82834493 Ry

     total magnetization       =    34.04 Bohr mag/cell
     absolute magnetization    =    36.68 Bohr mag/cell

     convergence has been achieved in  38 iterations

     Writing output data file mnau2.save/

     General routines

     Parallel routines

     Hubbard U routines

   This run was terminated on:  12:57:32  26Mar2019

   JOB DONE.