     Program PWSCF v.6.3MaX starts on 26Mar2019 at 12:57:32

     R & G space division:  proc/nbgrp/npool/nimage =      16
     Waiting for input...
     Reading input from standard input

     Current dimensions of program PWSCF are:
     Max number of different atomic species (ntypx) = 10
     Max number of k-points (npk) =  40000
     Max angular momentum in pseudopotentials (lmaxx) =  3
     Message from routine read_upf::
     Pseudo file ./pseudo/Mn.pbe-spn-kjpaw_psl.0.3.1.UPF has been successfully fixed on the fly.
To avoid this message in the future you can permanently fix
 your pseudo files following instructions given in:
               file Mn.pbe-spn-kjpaw_psl.0.3.1.UPF: wavefunction(s)  3P 3D renormalized
     Message from routine read_upf::
     Pseudo file ./pseudo/Mn.pbe-spn-kjpaw_psl.0.3.1.UPF has been successfully fixed on the fly.
To avoid this message in the future you can permanently fix
 your pseudo files following instructions given in:
               file Mn.pbe-spn-kjpaw_psl.0.3.1.UPF: wavefunction(s)  3P 3D renormalized
     Message from routine read_upf::
     Pseudo file ./pseudo/Au.pbe-dn-kjpaw_psl.0.1.UPF has been successfully fixed on the fly.
To avoid this message in the future you can permanently fix
 your pseudo files following instructions given in:
               file Au.pbe-dn-kjpaw_psl.0.1.UPF: wavefunction(s)  6S 6P 5D renormalized

     bravais-lattice index     =            0
     lattice parameter (alat)  =      18.0125  a.u.
     unit-cell volume          =    2685.0513 (a.u.)^3
     number of atoms/cell      =           24
     number of atomic types    =            3
     number of electrons       =       296.00
     number of Kohn-Sham states=          178
     kinetic-energy cutoff     =      45.0000  Ry
     charge density cutoff     =     400.0000  Ry
     convergence threshold     =      1.0E-06
     mixing beta               =       0.1000
     number of iterations used =            8  plain     mixing
     Exchange-correlation      = SLA PW PBX PBC ( 1  4  3  4 0 0)

     celldm(1)=  18.012490  celldm(2)=   0.000000  celldm(3)=   0.000000
     celldm(4)=   0.000000  celldm(5)=   0.000000  celldm(6)=   0.000000

     crystal axes: (cart. coord. in units of alat)
               a(1) = (   0.707107  -0.707107   0.000000 )
               a(2) = (  -0.707107  -0.707107   0.000000 )
               a(3) = (   0.176777   0.176777  -0.459443 )

     reciprocal axes: (cart. coord. in units 2 pi/alat)
               b(1) = (  0.707107 -0.707107  0.000000 )
               b(2) = ( -0.707107 -0.707107 -0.544138 )
               b(3) = (  0.000000  0.000000 -2.176550 )

     PseudoPot. # 1 for Mn read from file:
     ./pseudo/Mn.pbe-spn-kjpaw_psl.0.3.1.UPF
     MD5 check sum: 7eef95dd2aae66803482eea66ebeebf1
     Pseudo is Projector augmented-wave + core cor, Zval = 15.0
     Generated using "atomic" code by A. Dal Corso v.5.0.99 svn rev. 10869
     Shape of augmentation charge: PSQ
     Using radial grid of 1187 points,  6 beta functions with:
                l(1) =   0
                l(2) =   0
                l(3) =   1
                l(4) =   1
                l(5) =   2
                l(6) =   2
     Q(r) pseudized with 0 coefficients

     PseudoPot. # 2 for Mn read from file:
     ./pseudo/Mn.pbe-spn-kjpaw_psl.0.3.1.UPF
     MD5 check sum: 7eef95dd2aae66803482eea66ebeebf1
     Pseudo is Projector augmented-wave + core cor, Zval = 15.0
     Generated using "atomic" code by A. Dal Corso v.5.0.99 svn rev. 10869
     Shape of augmentation charge: PSQ
     Using radial grid of 1187 points,  6 beta functions with:
                l(1) =   0
                l(2) =   0
                l(3) =   1
                l(4) =   1
                l(5) =   2
                l(6) =   2
     Q(r) pseudized with 0 coefficients

     PseudoPot. # 3 for Au read from file:
     ./pseudo/Au.pbe-dn-kjpaw_psl.0.1.UPF
     MD5 check sum: 5c9b92683623e7ae2ab3f8e525febab6
     Pseudo is Projector augmented-wave + core cor, Zval = 11.0
     Generated using "atomic" code by A. Dal Corso v.5.0.2 svn rev. 9415
     Shape of augmentation charge: PSQ
     Using radial grid of 1279 points,  6 beta functions with:
                l(1) =   0
                l(2) =   0
                l(3) =   1
                l(4) =   1
                l(5) =   2
                l(6) =   2
     Q(r) pseudized with 0 coefficients

     atomic species   valence    mass     pseudopotential
        Mn1           15.00    54.93800     Mn( 1.00)
        Mn2           15.00    54.93800     Mn( 1.00)
        Au            11.00   196.96600     Au( 1.00)

     Starting magnetic structure
     atomic species   magnetization
        Mn1          1.000
        Mn2         -1.000
        Au           0.000

     Full LDA+U calculation (l_max = 2) with parameters (eV):
     U(  1) =   3.1200   J(  1) =   0.7000   B(  1) =   0.0803
     U(  2) =   3.1200   J(  2) =   0.7000   B(  2) =   0.0803

      2 Sym. Ops. (no inversion) found ( 1 have fractional translation)

   Cartesian axes

     site n.     atom                  positions (alat units)
         1           Mn1 tau(   1) = (   0.3535534  -0.3535534   0.0000000  )
         2           Mn1 tau(   2) = (   0.0000000   0.0000000   0.0000000  )
         3           Mn2 tau(   3) = (   0.0000000  -0.3535534   0.0000000  )
         4           Mn1 tau(   4) = (   0.3535534  -0.7071068   0.0000000  )
         5           Mn2 tau(   5) = (  -0.3535534  -0.3535534   0.0000000  )
         6           Mn2 tau(   6) = (   0.0000000  -0.7071068   0.0000000  )
         7           Mn1 tau(   7) = (  -0.3535534  -0.7071068   0.0000000  )
         8           Mn1 tau(   8) = (   0.0000000  -1.0606602   0.0000000  )
         9           Au  tau(   9) = (  -0.1767767  -0.1767767  -0.1470216  )
        10           Au  tau(  10) = (   0.1767767  -0.5303301  -0.1470216  )
        11           Au  tau(  11) = (  -0.1767767  -0.5303301  -0.1470216  )
        12           Au  tau(  12) = (   0.1767767  -0.8838835  -0.1470216  )
        13           Au  tau(  13) = (  -0.5303301  -0.5303301  -0.1470216  )
        14           Au  tau(  14) = (  -0.1767767  -0.8838835  -0.1470216  )
        15           Au  tau(  15) = (   0.5303301  -0.5303301  -0.1470216  )
        16           Au  tau(  16) = (   0.1767767  -0.1767767  -0.1470216  )
        17           Au  tau(  17) = (   0.3535534  -0.3535534  -0.3124210  )
        18           Au  tau(  18) = (   0.0000000   0.0000000  -0.3124210  )
        19           Au  tau(  19) = (   0.0000000  -0.3535534  -0.3124210  )
        20           Au  tau(  20) = (   0.3535534  -0.7071068  -0.3124210  )
        21           Au  tau(  21) = (  -0.3535534  -0.3535534  -0.3124210  )
        22           Au  tau(  22) = (  -0.0000000  -0.7071068  -0.3124210  )
        23           Au  tau(  23) = (  -0.3535534  -0.7071068  -0.3124210  )
        24           Au  tau(  24) = (   0.0000000  -1.0606602  -0.3124210  )

     number of k points=    30 (tetrahedron method)
                       cart. coord. in units 2pi/alat
        k(    1) = (   0.0000000   0.0000000   0.0000000), wk =   0.0156250
        k(    2) = (   0.0000000   0.0000000  -0.5441376), wk =   0.0312500
        k(    3) = (   0.0000000   0.0000000   1.0882752), wk =   0.0156250
        k(    4) = (  -0.1767767  -0.1767767  -0.1360344), wk =   0.0312500
        k(    5) = (  -0.1767767  -0.1767767  -0.6801720), wk =   0.0312500
        k(    6) = (  -0.1767767  -0.1767767   0.9522408), wk =   0.0312500
        k(    7) = (  -0.1767767  -0.1767767   0.4081032), wk =   0.0312500
        k(    8) = (   0.3535534   0.3535534   0.2720688), wk =   0.0156250
        k(    9) = (   0.3535534   0.3535534  -0.2720688), wk =   0.0312500
        k(   10) = (   0.3535534   0.3535534   1.3603439), wk =   0.0156250
        k(   11) = (   0.1767767  -0.1767767   0.0000000), wk =   0.0312500
        k(   12) = (   0.1767767  -0.1767767  -0.5441376), wk =   0.0625000
        k(   13) = (   0.1767767  -0.1767767   1.0882752), wk =   0.0312500
        k(   14) = (   0.0000000  -0.3535534  -0.1360344), wk =   0.0625000
        k(   15) = (   0.0000000  -0.3535534  -0.6801720), wk =   0.0625000
        k(   16) = (   0.0000000  -0.3535534   0.9522408), wk =   0.0625000
        k(   17) = (   0.0000000  -0.3535534   0.4081032), wk =   0.0625000
        k(   18) = (   0.5303301   0.1767767   0.2720688), wk =   0.0312500
        k(   19) = (   0.5303301   0.1767767  -0.2720688), wk =   0.0625000
        k(   20) = (   0.5303301   0.1767767   1.3603439), wk =   0.0312500
        k(   21) = (  -0.3535534   0.3535534   0.0000000), wk =   0.0156250
        k(   22) = (  -0.3535534   0.3535534  -0.5441376), wk =   0.0312500
        k(   23) = (  -0.3535534   0.3535534   1.0882752), wk =   0.0156250
        k(   24) = (  -0.5303301   0.1767767  -0.1360344), wk =   0.0312500
        k(   25) = (  -0.5303301   0.1767767  -0.6801720), wk =   0.0312500
        k(   26) = (  -0.5303301   0.1767767   0.9522408), wk =   0.0312500
        k(   27) = (  -0.5303301   0.1767767   0.4081032), wk =   0.0312500
        k(   28) = (   0.0000000   0.7071068   0.2720688), wk =   0.0156250
        k(   29) = (   0.0000000   0.7071068  -0.2720688), wk =   0.0312500
        k(   30) = (   0.0000000   0.7071068   1.3603439), wk =   0.0156250

     Check: negative/imaginary core charge=   -0.000006    0.000000

     Initial potential from superposition of free atoms

     starting charge  295.99426, renormalised to  296.00000
     Number of +U iterations with fixed ns =  0
     Starting occupations:
 --- enter write_ns ---
 LDA+U parameters:
U(  1) =   3.1200   J(  1) =   0.7000   B(  1) =   0.0803
U(  2) =   3.1200   J(  2) =   0.7000   B(  2) =   0.0803
atom    1   Tr[ns(na)] (up, down, total) =   5.00000  0.00000  5.00000
   spin  1
    eigenvalues:
  1.000  1.000  1.000  1.000  1.000
    eigenvectors:
  1.000  0.000  0.000  0.000  0.000
  0.000  1.000  0.000  0.000  0.000
  0.000  0.000  1.000  0.000  0.000
  0.000  0.000  0.000  1.000  0.000
  0.000  0.000  0.000  0.000  1.000
    occupations:
  1.000  0.000  0.000  0.000  0.000
  0.000  1.000  0.000  0.000  0.000
  0.000  0.000  1.000  0.000  0.000
  0.000  0.000  0.000  1.000  0.000
  0.000  0.000  0.000  0.000  1.000
   spin  2
    eigenvalues:
  0.000  0.000  0.000  0.000  0.000
    eigenvectors:
  1.000  0.000  0.000  0.000  0.000
  0.000  1.000  0.000  0.000  0.000
  0.000  0.000  1.000  0.000  0.000
  0.000  0.000  0.000  1.000  0.000
  0.000  0.000  0.000  0.000  1.000
    occupations:
  0.000  0.000  0.000  0.000  0.000
  0.000  0.000  0.000  0.000  0.000
  0.000  0.000  0.000  0.000  0.000
  0.000  0.000  0.000  0.000  0.000
  0.000  0.000  0.000  0.000  0.000
atomic mag. moment =     5.000000
atom    2   Tr[ns(na)] (up, down, total) =   5.00000  0.00000  5.00000
   spin  1
    eigenvalues:
  1.000  1.000  1.000  1.000  1.000
    eigenvectors:
  1.000  0.000  0.000  0.000  0.000
  0.000  1.000  0.000  0.000  0.000
  0.000  0.000  1.000  0.000  0.000
  0.000  0.000  0.000  1.000  0.000
  0.000  0.000  0.000  0.000  1.000
    occupations:
[...]
   spin  1
    eigenvalues:
  1.003  1.003  1.003  1.003  1.004
    eigenvectors:
  0.000  0.000  0.000  1.000  0.000
  0.000  0.500  0.500  0.000  0.000
  0.000  0.500  0.500  0.000  0.000
  0.000  0.001  0.000  0.000  0.999
  0.999  0.000  0.001  0.000  0.000
    occupations:
  1.003 -0.000 -0.000 -0.000  0.000
 -0.000  1.003  0.000 -0.000 -0.000
 -0.000  0.000  1.003  0.000 -0.000
 -0.000 -0.000  0.000  1.004 -0.000
  0.000 -0.000 -0.000 -0.000  1.003
   spin  2
    eigenvalues:
  0.041  0.050  0.054  0.054  0.073
    eigenvectors:
  0.000  0.991  0.000  0.009  0.000
  0.000  0.004  0.500  0.495  0.000
  0.000  0.004  0.500  0.495  0.000
  0.999  0.000  0.001  0.000  0.000
  0.000  0.000  0.000  0.000  0.999
    occupations:
  0.050  0.000  0.000 -0.000 -0.000
  0.000  0.054  0.000 -0.000  0.000
  0.000  0.000  0.054  0.000  0.000
 -0.000 -0.000  0.000  0.041 -0.000
 -0.000  0.000  0.000 -0.000  0.073
atomic mag. moment =     4.742115
N of occupied +U levels =   42.314878
 --- exit write_ns ---

     total energy              =  -14679.20560819 Ry
     Harris-Foulkes estimate   =  -14669.80229688 Ry
     estimated scf accuracy    <      21.27953802 Ry

     total magnetization       =    10.52 Bohr mag/cell
     absolute magnetization    =    43.54 Bohr mag/cell

     iteration #  2     ecut=    45.00 Ry     beta= 0.10
     Davidson diagonalization with overlap
     ethr =  7.19E-03,  avg # of iterations =  1.0

[...]

     total energy              =  -14693.94201473 Ry
     Harris-Foulkes estimate   =  -14693.94201085 Ry
     estimated scf accuracy    <       0.00000161 Ry

[...]

     iteration # 20     ecut=    45.00 Ry     beta= 0.10
     Davidson diagonalization with overlap
     ethr =  5.44E-10,  avg # of iterations =  3.0

     Magnetic moment per site:
     atom:    1    charge:   13.5449    magn:    4.1948    constr:    0.0000
     atom:    2    charge:   13.5449    magn:    4.1948    constr:    0.0000
     atom:    3    charge:   13.5362    magn:   -4.2491    constr:    0.0000
     atom:    4    charge:   13.5413    magn:    4.2117    constr:    0.0000
     atom:    5    charge:   13.5334    magn:   -4.2694    constr:    0.0000
     atom:    6    charge:   13.5334    magn:   -4.2694    constr:    0.0000
     atom:    7    charge:   13.5436    magn:    4.2124    constr:    0.0000
     atom:    8    charge:   13.5425    magn:    4.2013    constr:    0.0000
     atom:    9    charge:    9.0908    magn:   -0.0126    constr:    0.0000
     atom:   10    charge:    9.0908    magn:   -0.0126    constr:    0.0000
     atom:   11    charge:    9.0930    magn:   -0.0287    constr:    0.0000
     atom:   12    charge:    9.0921    magn:   -0.0066    constr:    0.0000
     atom:   13    charge:    9.0910    magn:    0.0214    constr:    0.0000
     atom:   14    charge:    9.0910    magn:    0.0214    constr:    0.0000
     atom:   15    charge:    9.0904    magn:    0.0433    constr:    0.0000
     atom:   16    charge:    9.0903    magn:   -0.0004    constr:    0.0000
     atom:   17    charge:    9.0901    magn:   -0.0012    constr:    0.0000
     atom:   18    charge:    9.0901    magn:   -0.0012    constr:    0.0000
     atom:   19    charge:    9.0928    magn:   -0.0403    constr:    0.0000
     atom:   20    charge:    9.0934    magn:   -0.0056    constr:    0.0000
     atom:   21    charge:    9.0915    magn:    0.0088    constr:    0.0000
     atom:   22    charge:    9.0915    magn:    0.0088    constr:    0.0000
     atom:   23    charge:    9.0905    magn:    0.0177    constr:    0.0000
     atom:   24    charge:    9.0899    magn:    0.0372    constr:    0.0000

     End of self-consistent calculation
 --- enter write_ns ---
 LDA+U parameters:
U(  1) =   3.1200   J(  1) =   0.7000   B(  1) =   0.0803
U(  2) =   3.1200   J(  2) =   0.7000   B(  2) =   0.0803
atom    1   Tr[ns(na)] (up, down, total) =   4.96522  0.77063  5.73584
   spin  1
    eigenvalues:
  0.983  0.992  0.992  0.996  1.002
    eigenvectors:
  0.000  0.033  0.002  0.962  0.003
  0.000  0.642  0.328  0.030  0.000
  0.000  0.325  0.670  0.005  0.000
  0.000  0.000  0.000  0.003  0.997
  0.999  0.000  0.001  0.000  0.000
    occupations:
  0.996 -0.001 -0.000  0.000  0.000
 -0.001  0.992 -0.000 -0.000 -0.000
 -0.000 -0.000  0.992 -0.000  0.000
  0.000 -0.000 -0.000  1.002 -0.000
  0.000 -0.000  0.000 -0.000  0.983
   spin  2
    eigenvalues:
  0.067  0.129  0.149  0.157  0.267
    eigenvectors:
  0.000  0.994  0.000  0.003  0.002
  0.000  0.000  0.999  0.000  0.000
  0.000  0.003  0.000  0.990  0.007
  1.000  0.000  0.000  0.000  0.000
  0.000  0.002  0.000  0.006  0.992
    occupations:
  0.130  0.000 -0.001 -0.000  0.006
  0.000  0.149 -0.000 -0.001 -0.002
 -0.001 -0.000  0.158 -0.001  0.009
 -0.000 -0.001 -0.001  0.067  0.000
  0.006 -0.002  0.009  0.000  0.266
atomic mag. moment =     4.194591
atom    2   Tr[ns(na)] (up, down, total) =   4.96522  0.77063  5.73584
   spin  1
    eigenvalues:
  0.983  0.992  0.992  0.996  1.002
    eigenvectors:
  0.000  0.033  0.002  0.962  0.003
  0.000  0.325  0.670  0.005  0.000
  0.000  0.642  0.328  0.030  0.000
  0.000  0.000  0.000  0.003  0.997
  0.999  0.000  0.001  0.000  0.000
    occupations:
  0.996 -0.000 -0.001 -0.000  0.000
 -0.000  0.992 -0.000  0.000  0.000
 -0.001 -0.000  0.992  0.000 -0.000
 -0.000  0.000  0.000  1.002  0.000
  0.000  0.000 -0.000  0.000  0.983
   spin  2
    eigenvalues:
  0.067  0.129  0.149  0.157  0.267
    eigenvectors:
  0.000  0.994  0.000  0.003  0.002
  0.000  0.003  0.000  0.990  0.007
  0.000  0.000  0.999  0.000  0.000
  1.000  0.000  0.000  0.000  0.000
  0.000  0.002  0.000  0.006  0.992
    occupations:
  0.130 -0.001  0.000  0.000  0.006
 -0.001  0.158 -0.000  0.001  0.009
  0.000 -0.000  0.149  0.001 -0.002
  0.000  0.001  0.001  0.067 -0.000
  0.006  0.009 -0.002 -0.000  0.266
atomic mag. moment =     4.194591
atom    3   Tr[ns(na)] (up, down, total) =   0.72687  4.96987  5.69673
   spin  1
    eigenvalues:
  0.069  0.121  0.145  0.146  0.245
    eigenvectors:
  0.000  0.957  0.038  0.000  0.005
  0.000  0.021  0.467  0.500  0.012
  0.000  0.021  0.467  0.500  0.012
  1.000  0.000  0.000  0.000  0.000
  0.000  0.002  0.027  0.000  0.971
    occupations:
  0.123  0.004  0.004 -0.000  0.008
  0.004  0.146  0.000 -0.001  0.011
  0.004  0.000  0.146  0.001  0.011
 -0.000 -0.001  0.001  0.069 -0.000
  0.008  0.011  0.011 -0.000  0.242
   spin  2
    eigenvalues:
  0.986  0.992  0.993  0.997  1.002
    eigenvectors:
  0.003  0.000  0.049  0.948  0.000
  0.001  0.500  0.474  0.025  0.000
  0.001  0.500  0.474  0.025  0.000
  0.000  0.000  0.000  0.000  1.000
  0.995  0.000  0.003  0.002  0.000
    occupations:
  0.997 -0.001 -0.001 -0.000 -0.001
 -0.001  0.993  0.000 -0.000 -0.000
 -0.001  0.000  0.993  0.000 -0.000
 -0.000 -0.000  0.000  1.002 -0.000
 -0.001 -0.000 -0.000 -0.000  0.986
atomic mag. moment =    -4.243004
atom    4   Tr[ns(na)] (up, down, total) =   4.96610  0.75362  5.71972
   spin  1
    eigenvalues:
  0.983  0.991  0.993  0.997  1.001
    eigenvectors:
  0.001  0.000  0.044  0.955  0.000
  0.001  0.500  0.477  0.022  0.000
  0.001  0.500  0.477  0.022  0.000
  0.000  0.001  0.000  0.000  0.999
  0.997  0.000  0.002  0.001  0.000
    occupations:
  0.997  0.001  0.001 -0.000  0.000
  0.001  0.992  0.001 -0.000  0.000
  0.001  0.001  0.992  0.000  0.000
 -0.000 -0.000  0.000  1.001 -0.000
  0.000  0.000  0.000 -0.000  0.983
   spin  2
    eigenvalues:
  0.069  0.126  0.150  0.155  0.254
    eigenvectors:
  0.000  0.939  0.048  0.000  0.013
  0.000  0.026  0.470  0.500  0.004
  0.000  0.026  0.470  0.500  0.004
  1.000  0.000  0.000  0.000  0.000
  0.000  0.009  0.012  0.000  0.980
    occupations:
  0.129  0.005  0.005  0.000 -0.014
  0.005  0.152 -0.003 -0.000 -0.006
  0.005 -0.003  0.152  0.000 -0.006
  0.000 -0.000  0.000  0.069 -0.000
 -0.014 -0.006 -0.006 -0.000  0.252
atomic mag. moment =     4.212485
atom    5   Tr[ns(na)] (up, down, total) =   0.71185  4.97220  5.68405
   spin  1
    eigenvalues:
  0.071  0.127  0.136  0.144  0.234
    eigenvectors:
  0.000  0.991  0.002  0.002  0.005
  0.000  0.000  0.380  0.583  0.037
  0.003  0.004  0.605  0.388  0.000
  0.997  0.001  0.002  0.001  0.000
  0.000  0.005  0.012  0.027  0.957
    occupations:
  0.128  0.002  0.001 -0.001  0.007
  0.002  0.145  0.004 -0.000  0.018
  0.001  0.004  0.139  0.003  0.000
 -0.001 -0.000  0.003  0.071 -0.000
  0.007  0.018  0.000 -0.000  0.230
   spin  2
    eigenvalues:
  0.986  0.993  0.994  0.997  1.002
    eigenvectors:
  0.011  0.052  0.002  0.932  0.003
  0.010  0.345  0.633  0.012  0.000
  0.001  0.590  0.362  0.046  0.001
  0.000  0.000  0.000  0.003  0.996
  0.978  0.012  0.003  0.007  0.000
    occupations:
  0.997 -0.001 -0.001 -0.000 -0.001
 -0.001  0.994 -0.001  0.000 -0.001
 -0.001 -0.001  0.994  0.000 -0.000
 -0.000  0.000  0.000  1.002 -0.000
 -0.001 -0.001 -0.000 -0.000  0.986
atomic mag. moment =    -4.260356
atom    6   Tr[ns(na)] (up, down, total) =   0.71185  4.97220  5.68405
   spin  1
    eigenvalues:
  0.071  0.127  0.136  0.144  0.234
    eigenvectors:
  0.000  0.991  0.002  0.002  0.005
  0.003  0.004  0.605  0.388  0.000
  0.000  0.000  0.380  0.583  0.037
  0.997  0.001  0.002  0.001  0.000
  0.000  0.005  0.012  0.027  0.957
    occupations:
  0.128  0.001  0.002  0.001  0.007
  0.001  0.139  0.004 -0.003  0.000
  0.002  0.004  0.145  0.000  0.018
  0.001 -0.003  0.000  0.071  0.000
  0.007  0.000  0.018  0.000  0.230
   spin  2
    eigenvalues:
  0.986  0.993  0.994  0.997  1.002
    eigenvectors:
  0.011  0.052  0.002  0.932  0.003
  0.001  0.590  0.362  0.046  0.001
  0.010  0.345  0.633  0.012  0.000
  0.000  0.000  0.000  0.003  0.996
  0.978  0.012  0.003  0.007  0.000
    occupations:
  0.997 -0.001 -0.001  0.000 -0.001
 -0.001  0.994 -0.001 -0.000 -0.000
 -0.001 -0.001  0.994 -0.000 -0.001
  0.000 -0.000 -0.000  1.002  0.000
 -0.001 -0.000 -0.001  0.000  0.986
atomic mag. moment =    -4.260356
atom    7   Tr[ns(na)] (up, down, total) =   4.96732  0.75753  5.72485
   spin  1
    eigenvalues:
  0.984  0.992  0.994  0.996  1.001
    eigenvectors:
  0.003  0.007  0.000  0.991  0.000
  0.001  0.495  0.500  0.003  0.000
  0.001  0.495  0.500  0.003  0.000
  0.000  0.000  0.000  0.000  1.000
  0.994  0.002  0.000  0.003  0.000
    occupations:
  0.996 -0.000 -0.000 -0.000 -0.001
 -0.000  0.993 -0.001 -0.000  0.000
 -0.000 -0.001  0.993  0.000  0.000
 -0.000 -0.000  0.000  1.001 -0.000
 -0.001  0.000  0.000 -0.000  0.984
   spin  2
    eigenvalues:
  0.068  0.124  0.150  0.156  0.259
    eigenvectors:
  0.000  0.964  0.034  0.000  0.002
  0.000  0.016  0.479  0.500  0.005
  0.000  0.016  0.479  0.500  0.005
  1.000  0.000  0.000  0.000  0.000
  0.000  0.004  0.008  0.000  0.988
    occupations:
  0.125 -0.003 -0.003 -0.000  0.006
 -0.003  0.153 -0.003 -0.000  0.008
 -0.003 -0.003  0.153  0.000  0.008
 -0.000 -0.000  0.000  0.068 -0.000
  0.006  0.008  0.008 -0.000  0.257
atomic mag. moment =     4.209792
atom    8   Tr[ns(na)] (up, down, total) =   4.96494  0.76406  5.72900
   spin  1
    eigenvalues:
  0.983  0.992  0.993  0.996  1.001
    eigenvectors:
  0.000  0.000  0.012  0.988  0.000
  0.000  0.500  0.494  0.006  0.000
  0.000  0.500  0.494  0.006  0.000
  0.000  0.000  0.000  0.000  1.000
  1.000  0.000  0.000  0.000  0.000
    occupations:
  0.996  0.000  0.000 -0.000  0.000
  0.000  0.992  0.000  0.000 -0.000
  0.000  0.000  0.992 -0.000 -0.000
 -0.000  0.000 -0.000  1.001 -0.000
  0.000 -0.000 -0.000 -0.000  0.983
   spin  2
    eigenvalues:
  0.069  0.129  0.151  0.153  0.262
    eigenvectors:
  0.000  0.726  0.273  0.000  0.001
  0.001  0.136  0.351  0.499  0.013
  0.001  0.136  0.351  0.499  0.013
  0.999  0.000  0.000  0.001  0.000
  0.000  0.003  0.025  0.000  0.973
    occupations:
  0.135  0.007  0.007 -0.000 -0.003
  0.007  0.150 -0.003  0.002 -0.013
  0.007 -0.003  0.150 -0.002 -0.013
 -0.000  0.002 -0.002  0.069 -0.000
 -0.003 -0.013 -0.013 -0.000  0.259
atomic mag. moment =     4.200886
N of occupied +U levels =   45.710091
 --- exit write_ns ---

 ------ SPIN UP ------------

          k = 0.0000 0.0000 0.0000 ( 13629 PWs)   bands (ev):

   -66.4070 -66.3845 -66.3631 -66.3492 -66.3488 -61.9001 -61.8997 -61.8803
   -35.1771 -35.1569 -35.1499 -35.1419 -35.1296 -35.1295 -35.1171 -35.1130
   -35.1069 -35.0974 -35.0808 -35.0800 -35.0762 -35.0606 -35.0603 -30.7297
   -30.7295 -30.7270 -30.7268 -30.7209 -30.7208 -30.7106 -30.7034 -30.7030
     5.9506   7.5529   7.6311   8.0871   8.1567   8.3307   8.4418   8.4695
     8.7050   8.7080   9.0399   9.1574   9.3555   9.3821   9.3969   9.4062
     9.4488   9.4649   9.5395   9.5603   9.5675   9.6032   9.6061   9.6298
     9.6399   9.6429   9.7115   9.8300   9.8641   9.9409   9.9464   9.9504
     9.9687  10.0140  10.0159  10.0383  10.0608  10.1199  10.1878  10.2198
    10.2321  10.2656  10.2669  10.3035  10.3135  10.3372  10.4229  10.4244
    10.4863  10.4913  10.5030  10.5092  10.5202  10.5902  10.6270  10.6635
    10.7283  10.7493  10.8418  10.8750  11.0326  11.0744  11.0860  11.1203
    11.1671  11.1676  11.3298  11.3319  11.3715  11.3859  11.4691  11.5718
    11.7162  11.7938  11.8171  11.8187  11.8256  11.8320  11.8707  11.8967
    11.9623  12.0025  12.0144  12.1456  12.2007  12.2296  12.2683  12.2747
    12.2771  12.3268  12.3555  12.3666  12.3695  12.4198  12.4723  12.5125
    12.5215  12.5298  12.5708  12.6282  12.6810  12.6923  12.6970  12.7664
    12.8389  12.9096  12.9419  13.1165  13.1603  13.2260  13.2556  13.2683
    13.2702  13.2988  14.1268  14.5869  15.0443  15.0945  15.3426  15.8499
    16.2755  16.4552  16.6295  16.7464  16.8529  16.8962  17.1047  17.1119
    17.3120  17.3816  17.4329  17.5000  17.7271  17.8131  17.8317  18.1675
    18.3451  18.5964  19.1133  19.1264  19.3408  19.3744  19.4383  19.4518
    19.4579  19.6787

[...]

          k =-0.1768-0.1768-0.1360 ( 13673 PWs)   bands (ev):

[...]

 ------ SPIN DOWN ----------

[...]

          k =-0.5303 0.1768 0.4081 ( 13670 PWs)   bands (ev):

[...]

          k = 0.0000 0.7071 1.3603 ( 13696 PWs)   bands (ev):

   -66.5121 -66.5118 -66.4762 -61.8452 -61.8345 -61.8022 -61.8022 -61.8016
   -35.2808 -35.2808 -35.2546 -35.2418 -35.2418 -35.2340 -35.2340 -35.2020
   -35.1914 -30.6765 -30.6723 -30.6676 -30.6638 -30.6626 -30.6575 -30.6348
   -30.6344 -30.6320 -30.6311 -30.6309 -30.6299 -30.6292 -30.6210 -30.6206
     7.8576   7.9167   7.9894   8.0067   8.5871   8.6480   8.6749   8.7313
     8.8247   8.8469   8.8741   8.9602   9.0481   9.0732   9.1097   9.1568
     9.1827   9.1894   9.2591   9.2945   9.4469   9.4905   9.5363   9.5581
     9.5812   9.6083   9.6173   9.6774   9.6873   9.7203   9.7782   9.7816
     9.8481   9.9558  10.0088  10.0610  10.0831  10.1780  10.1954  10.2149
    10.2366  10.2393  10.2803  10.2989  10.5222  10.5304  10.7931  10.8172
    10.9080  10.9599  10.9903  11.0069  11.0337  11.1151  11.1317  11.1479
    11.2313  11.2317  11.2656  11.2830  11.4128  11.4381  11.4888  11.5128
    11.5242  11.6533  11.6615  11.7143  11.8025  11.8800  11.9107  11.9317
    11.9508  11.9818  11.9944  12.0044  12.0259  12.0572  12.0686  12.1276
    12.1311  12.2303  12.2451  12.2711  12.2772  12.3093  12.3241  12.3505
    12.3993  12.4432  12.5111  12.6119  12.6121  12.6471  12.6527  12.6716
    12.6948  12.7190  12.8190  13.0732  13.1186  13.1961  13.2784  13.3684
    13.3905  13.6468  13.7826  14.1381  14.2854  14.5834  14.6564  15.4303
    15.5487  15.8681  16.1200  16.3136  16.4208  16.5888  16.7261  17.0461
    17.2330  17.2588  17.2783  17.3011  17.4090  17.4610  17.4734  17.4983
    17.5419  17.5699  17.5841  17.6324  17.6870  17.7240  17.8745  18.0754
    18.1960  18.2907  18.3451  18.4024  18.4514  18.4610  18.6070  18.6253
    20.6160  20.8267

     the Fermi energy is    15.5636 ev

!    total energy              =  -14693.94202930 Ry
     Harris-Foulkes estimate   =  -14693.94201443 Ry
     estimated scf accuracy    <       0.00000057 Ry

     total all-electron energy =   -626921.537751 Ry

     The total energy is the sum of the following terms:

     one-electron contribution =    -698.47220504 Ry
     hartree contribution      =     651.61184278 Ry
     xc contribution           =    -738.10708065 Ry
     ewald contribution        =   -2207.56121140 Ry
     Hubbard energy            =       0.45782909 Ry
     one-center paw contrib.   =  -11701.87120409 Ry

     total magnetization       =     8.29 Bohr mag/cell
     absolute magnetization    =    36.83 Bohr mag/cell

     convergence has been achieved in  20 iterations

     Writing output data file mnau2.save/

     General routines

     Parallel routines

     Hubbard U routines

   This run was terminated on:  13:14:23  26Mar2019

   JOB DONE.