     Program PWSCF v.6.3MaX starts on 26Mar2019 at 13:14:23

     R & G space division:  proc/nbgrp/npool/nimage =      16
     Waiting for input...
     Reading input from standard input

     Current dimensions of program PWSCF are:
     Max number of different atomic species (ntypx) = 10
     Max number of k-points (npk) =  40000
     Max angular momentum in pseudopotentials (lmaxx) =  3
     Message from routine read_upf::
     Pseudo file ./pseudo/Mn.pbe-spn-kjpaw_psl.0.3.1.UPF has been successfully fixed on the fly.
To avoid this message in the future you can permanently fix
 your pseudo files following instructions given in:
               file Mn.pbe-spn-kjpaw_psl.0.3.1.UPF: wavefunction(s)  3P 3D renormalized
     Message from routine read_upf::
     Pseudo file ./pseudo/Mn.pbe-spn-kjpaw_psl.0.3.1.UPF has been successfully fixed on the fly.
To avoid this message in the future you can permanently fix
 your pseudo files following instructions given in:
               file Mn.pbe-spn-kjpaw_psl.0.3.1.UPF: wavefunction(s)  3P 3D renormalized
     Message from routine read_upf::
     Pseudo file ./pseudo/Au.pbe-dn-kjpaw_psl.0.1.UPF has been successfully fixed on the fly.
To avoid this message in the future you can permanently fix
 your pseudo files following instructions given in:
               file Au.pbe-dn-kjpaw_psl.0.1.UPF: wavefunction(s)  6S 6P 5D renormalized

     Found symmetry operation: I + (  0.0000 -0.5000  0.0000)
     This is a supercell, fractional translations are disabled

     bravais-lattice index     =            0
     lattice parameter (alat)  =      18.0125  a.u.
     unit-cell volume          =    2685.0513 (a.u.)^3
     number of atoms/cell      =           24
     number of atomic types    =            3
     number of electrons       =       296.00
     number of Kohn-Sham states=          178
     kinetic-energy cutoff     =      45.0000  Ry
     charge density cutoff     =     400.0000  Ry
     convergence threshold     =      1.0E-06
     mixing beta               =       0.1000
     number of iterations used =            8  plain     mixing
     Exchange-correlation      = SLA PW PBX PBC ( 1  4  3  4 0 0)

     celldm(1)=  18.012490  celldm(2)=   0.000000  celldm(3)=   0.000000
     celldm(4)=   0.000000  celldm(5)=   0.000000  celldm(6)=   0.000000

     crystal axes: (cart. coord. in units of alat)
               a(1) = (   0.707107  -0.707107   0.000000 )
               a(2) = (  -0.707107  -0.707107   0.000000 )
               a(3) = (   0.176777   0.176777  -0.459443 )

     reciprocal axes: (cart. coord. in units 2 pi/alat)
               b(1) = (  0.707107 -0.707107  0.000000 )
               b(2) = ( -0.707107 -0.707107 -0.544138 )
               b(3) = (  0.000000  0.000000 -2.176550 )

     PseudoPot. # 1 for Mn read from file:
     ./pseudo/Mn.pbe-spn-kjpaw_psl.0.3.1.UPF
     MD5 check sum: 7eef95dd2aae66803482eea66ebeebf1
     Pseudo is Projector augmented-wave + core cor, Zval = 15.0
     Generated using "atomic" code by A. Dal Corso v.5.0.99 svn rev. 10869
     Shape of augmentation charge: PSQ
     Using radial grid of 1187 points,  6 beta functions with:
                l(1) =   0
                l(2) =   0
                l(3) =   1
                l(4) =   1
                l(5) =   2
                l(6) =   2
     Q(r) pseudized with 0 coefficients

     PseudoPot. # 2 for Mn read from file:
     ./pseudo/Mn.pbe-spn-kjpaw_psl.0.3.1.UPF
     MD5 check sum: 7eef95dd2aae66803482eea66ebeebf1
     Pseudo is Projector augmented-wave + core cor, Zval = 15.0
     Generated using "atomic" code by A. Dal Corso v.5.0.99 svn rev. 10869
     Shape of augmentation charge: PSQ
     Using radial grid of 1187 points,  6 beta functions with:
                l(1) =   0
                l(2) =   0
                l(3) =   1
                l(4) =   1
                l(5) =   2
                l(6) =   2
     Q(r) pseudized with 0 coefficients

     PseudoPot. # 3 for Au read from file:
     ./pseudo/Au.pbe-dn-kjpaw_psl.0.1.UPF
     MD5 check sum: 5c9b92683623e7ae2ab3f8e525febab6
     Pseudo is Projector augmented-wave + core cor, Zval = 11.0
     Generated using "atomic" code by A. Dal Corso v.5.0.2 svn rev. 9415
     Shape of augmentation charge: PSQ
     Using radial grid of 1279 points,  6 beta functions with:
                l(1) =   0
                l(2) =   0
                l(3) =   1
                l(4) =   1
                l(5) =   2
                l(6) =   2
     Q(r) pseudized with 0 coefficients

     atomic species   valence    mass     pseudopotential
        Mn1           15.00    54.93800     Mn( 1.00)
        Mn2           15.00    54.93800     Mn( 1.00)
        Au            11.00   196.96600     Au( 1.00)

     Starting magnetic structure
     atomic species   magnetization
        Mn1          1.000
        Mn2         -1.000
        Au           0.000

     Full LDA+U calculation (l_max = 2) with parameters (eV):
     U(  1) =   3.1200   J(  1) =   0.7000   B(  1) =   0.0803
     U(  2) =   3.1200   J(  2) =   0.7000   B(  2) =   0.0803

      2 Sym. Ops. (no inversion) found

   Cartesian axes

     site n.     atom                  positions (alat units)
         1           Mn1 tau(   1) = (   0.3535534  -0.3535534   0.0000000  )
         2           Mn2 tau(   2) = (   0.0000000   0.0000000   0.0000000  )
         3           Mn1 tau(   3) = (   0.0000000  -0.3535534   0.0000000  )
         4           Mn2 tau(   4) = (   0.3535534  -0.7071068   0.0000000  )
         5           Mn2 tau(   5) = (  -0.3535534  -0.3535534   0.0000000  )
         6           Mn1 tau(   6) = (   0.0000000  -0.7071068   0.0000000  )
         7           Mn1 tau(   7) = (  -0.3535534  -0.7071068   0.0000000  )
         8           Mn2 tau(   8) = (   0.0000000  -1.0606602   0.0000000  )
         9           Au  tau(   9) = (  -0.1767767  -0.1767767  -0.1470216  )
        10           Au  tau(  10) = (   0.1767767  -0.5303301  -0.1470216  )
        11           Au  tau(  11) = (  -0.1767767  -0.5303301  -0.1470216  )
        12           Au  tau(  12) = (   0.1767767  -0.8838835  -0.1470216  )
        13           Au  tau(  13) = (  -0.5303301  -0.5303301  -0.1470216  )
        14           Au  tau(  14) = (  -0.1767767  -0.8838835  -0.1470216  )
        15           Au  tau(  15) = (   0.5303301  -0.5303301  -0.1470216  )
        16           Au  tau(  16) = (   0.1767767  -0.1767767  -0.1470216  )
        17           Au  tau(  17) = (   0.3535534  -0.3535534  -0.3124210  )
        18           Au  tau(  18) = (   0.0000000   0.0000000  -0.3124210  )
        19           Au  tau(  19) = (   0.0000000  -0.3535534  -0.3124210  )
        20           Au  tau(  20) = (   0.3535534  -0.7071068  -0.3124210  )
        21           Au  tau(  21) = (  -0.3535534  -0.3535534  -0.3124210  )
        22           Au  tau(  22) = (  -0.0000000  -0.7071068  -0.3124210  )
        23           Au  tau(  23) = (  -0.3535534  -0.7071068  -0.3124210  )
        24           Au  tau(  24) = (   0.0000000  -1.0606602  -0.3124210  )

     number of k points=    30 (tetrahedron method)
                       cart. coord. in units 2pi/alat
        k(    1) = (   0.0000000   0.0000000   0.0000000), wk =   0.0156250
        k(    2) = (   0.0000000   0.0000000  -0.5441376), wk =   0.0312500
        k(    3) = (   0.0000000   0.0000000   1.0882752), wk =   0.0156250
        k(    4) = (  -0.1767767  -0.1767767  -0.1360344), wk =   0.0312500
        k(    5) = (  -0.1767767  -0.1767767  -0.6801720), wk =   0.0312500
        k(    6) = (  -0.1767767  -0.1767767   0.9522408), wk =   0.0312500
        k(    7) = (  -0.1767767  -0.1767767   0.4081032), wk =   0.0312500
        k(    8) = (   0.3535534   0.3535534   0.2720688), wk =   0.0156250
        k(    9) = (   0.3535534   0.3535534  -0.2720688), wk =   0.0312500
        k(   10) = (   0.3535534   0.3535534   1.3603439), wk =   0.0156250
        k(   11) = (   0.1767767  -0.1767767   0.0000000), wk =   0.0312500
        k(   12) = (   0.1767767  -0.1767767  -0.5441376), wk =   0.0625000
        k(   13) = (   0.1767767  -0.1767767   1.0882752), wk =   0.0312500
        k(   14) = (   0.0000000  -0.3535534  -0.1360344), wk =   0.0625000
        k(   15) = (   0.0000000  -0.3535534  -0.6801720), wk =   0.0625000
        k(   16) = (   0.0000000  -0.3535534   0.9522408), wk =   0.0625000
        k(   17) = (   0.0000000  -0.3535534   0.4081032), wk =   0.0625000
        k(   18) = (   0.5303301   0.1767767   0.2720688), wk =   0.0312500
        k(   19) = (   0.5303301   0.1767767  -0.2720688), wk =   0.0625000
        k(   20) = (   0.5303301   0.1767767   1.3603439), wk =   0.0312500
        k(   21) = (  -0.3535534   0.3535534   0.0000000), wk =   0.0156250
        k(   22) = (  -0.3535534   0.3535534  -0.5441376), wk =   0.0312500
        k(   23) = (  -0.3535534   0.3535534   1.0882752), wk =   0.0156250
        k(   24) = (  -0.5303301   0.1767767  -0.1360344), wk =   0.0312500
        k(   25) = (  -0.5303301   0.1767767  -0.6801720), wk =   0.0312500
        k(   26) = (  -0.5303301   0.1767767   0.9522408), wk =   0.0312500
        k(   27) = (  -0.5303301   0.1767767   0.4081032), wk =   0.0312500
        k(   28) = (   0.0000000   0.7071068   0.2720688), wk =   0.0156250
        k(   29) = (   0.0000000   0.7071068  -0.2720688), wk =   0.0312500
        k(   30) = (   0.0000000   0.7071068   1.3603439), wk =   0.0156250

     Check: negative/imaginary core charge=   -0.000006    0.000000

     Initial potential from superposition of free atoms

     starting charge  295.99426, renormalised to  296.00000
     Number of +U iterations with fixed ns =  0
     Starting occupations:
 --- enter write_ns ---
 LDA+U parameters:
U(  1) =   3.1200   J(  1) =   0.7000   B(  1) =   0.0803
U(  2) =   3.1200   J(  2) =   0.7000   B(  2) =   0.0803
atom    1   Tr[ns(na)] (up, down, total) =   5.00000  0.00000  5.00000
   spin  1
    eigenvalues:
  1.000  1.000  1.000  1.000  1.000
    eigenvectors:
  1.000  0.000  0.000  0.000  0.000
  0.000  1.000  0.000  0.000  0.000
  0.000  0.000  1.000  0.000  0.000
  0.000  0.000  0.000  1.000  0.000
  0.000  0.000  0.000  0.000  1.000
    occupations:
  1.000  0.000  0.000  0.000  0.000
  0.000  1.000  0.000  0.000  0.000
  0.000  0.000  1.000  0.000  0.000
  0.000  0.000  0.000  1.000  0.000
  0.000  0.000  0.000  0.000  1.000
   spin  2
    eigenvalues:
  0.000  0.000  0.000  0.000  0.000
    eigenvectors:
  1.000  0.000  0.000  0.000  0.000
  0.000  1.000  0.000  0.000  0.000
  0.000  0.000  1.000  0.000  0.000
  0.000  0.000  0.000  1.000  0.000
  0.000  0.000  0.000  0.000  1.000
    occupations:
  0.000  0.000  0.000  0.000  0.000
  0.000  0.000  0.000  0.000  0.000
  0.000  0.000  0.000  0.000  0.000
  0.000  0.000  0.000  0.000  0.000
  0.000  0.000  0.000  0.000  0.000
atomic mag. moment =     5.000000
atom    2   Tr[ns(na)] (up, down, total) =   0.00000  5.00000  5.00000
   spin  1
    eigenvalues:
  0.000  0.000  0.000  0.000  0.000
    eigenvectors:
  1.000  0.000  0.000  0.000  0.000
  0.000  1.000  0.000  0.000  0.000
  0.000  0.000  1.000  0.000  0.000
[...]
   spin  1
    eigenvalues:
  0.041  0.051  0.054  0.055  0.072
    eigenvectors:
  0.000  0.990  0.009  0.000  0.000
  0.000  0.004  0.547  0.449  0.000
  0.000  0.005  0.444  0.551  0.000
  1.000  0.000  0.000  0.000  0.000
  0.000  0.000  0.000  0.000  1.000
    occupations:
  0.051  0.000  0.000  0.000 -0.000
  0.000  0.055 -0.000 -0.000  0.000
  0.000 -0.000  0.055  0.000  0.000
  0.000 -0.000  0.000  0.041 -0.000
 -0.000  0.000  0.000 -0.000  0.072
   spin  2
    eigenvalues:
  1.003  1.003  1.003  1.003  1.004
    eigenvectors:
  0.001  0.000  0.000  0.999  0.000
  0.000  0.382  0.617  0.000  0.000
  0.000  0.617  0.382  0.000  0.000
  0.000  0.000  0.000  0.000  0.999
  0.999  0.000  0.000  0.001  0.000
    occupations:
  1.003 -0.000 -0.000 -0.000 -0.000
 -0.000  1.003  0.000 -0.000 -0.000
 -0.000  0.000  1.003  0.000 -0.000
 -0.000 -0.000  0.000  1.004 -0.000
 -0.000 -0.000 -0.000 -0.000  1.003
atomic mag. moment =    -4.740421
N of occupied +U levels =   42.312561
 --- exit write_ns ---

     total energy              =  -14679.20983928 Ry
     Harris-Foulkes estimate   =  -14669.80685414 Ry
     estimated scf accuracy    <      21.27253948 Ry

     total magnetization       =    -0.00 Bohr mag/cell
     absolute magnetization    =    43.59 Bohr mag/cell

     iteration #  2     ecut=    45.00 Ry     beta= 0.10
     Davidson diagonalization with overlap
     ethr =  7.19E-03,  avg # of iterations =  1.0

[...]

     total energy              =  -14693.94004421 Ry
     Harris-Foulkes estimate   =  -14693.94004020 Ry
     estimated scf accuracy    <       0.00000119 Ry

[...]

     iteration # 19     ecut=    45.00 Ry     beta= 0.10
     Davidson diagonalization with overlap
     ethr =  4.01E-10,  avg # of iterations =  2.5

     Magnetic moment per site:
     atom:    1    charge:   13.5430    magn:    4.2055    constr:    0.0000
     atom:    2    charge:   13.5431    magn:   -4.2084    constr:    0.0000
     atom:    3    charge:   13.5431    magn:    4.2069    constr:    0.0000
     atom:    4    charge:   13.5429    magn:   -4.2069    constr:    0.0000
     atom:    5    charge:   13.5432    magn:   -4.2055    constr:    0.0000
     atom:    6    charge:   13.5428    magn:    4.2084    constr:    0.0000
     atom:    7    charge:   13.5431    magn:    4.2069    constr:    0.0000
     atom:    8    charge:   13.5429    magn:   -4.2069    constr:    0.0000
     atom:    9    charge:    9.0903    magn:   -0.0265    constr:    0.0000
     atom:   10    charge:    9.0897    magn:    0.0254    constr:    0.0000
     atom:   11    charge:    9.0902    magn:    0.0263    constr:    0.0000
     atom:   12    charge:    9.0898    magn:   -0.0257    constr:    0.0000
     atom:   13    charge:    9.0901    magn:   -0.0259    constr:    0.0000
     atom:   14    charge:    9.0899    magn:    0.0261    constr:    0.0000
     atom:   15    charge:    9.0898    magn:   -0.0258    constr:    0.0000
     atom:   16    charge:    9.0902    magn:    0.0261    constr:    0.0000
     atom:   17    charge:    9.0899    magn:    0.0261    constr:    0.0000
     atom:   18    charge:    9.0901    magn:   -0.0259    constr:    0.0000
     atom:   19    charge:    9.0902    magn:    0.0263    constr:    0.0000
     atom:   20    charge:    9.0898    magn:   -0.0257    constr:    0.0000
     atom:   21    charge:    9.0903    magn:   -0.0265    constr:    0.0000
     atom:   22    charge:    9.0897    magn:    0.0254    constr:    0.0000
     atom:   23    charge:    9.0902    magn:    0.0261    constr:    0.0000
     atom:   24    charge:    9.0898    magn:   -0.0258    constr:    0.0000

     End of self-consistent calculation
 --- enter write_ns ---
 LDA+U parameters:
U(  1) =   3.1200   J(  1) =   0.7000   B(  1) =   0.0803
U(  2) =   3.1200   J(  2) =   0.7000   B(  2) =   0.0803
atom    1   Tr[ns(na)] (up, down, total) =   4.96518  0.76354  5.72872
   spin  1
    eigenvalues:
  0.983  0.990  0.993  0.997  1.001
    eigenvectors:
  0.004  0.000  0.003  0.993  0.000
  0.001  0.500  0.497  0.001  0.000
  0.001  0.500  0.497  0.001  0.000
  0.000  0.000  0.000  0.000  1.000
  0.993  0.000  0.003  0.004  0.000
    occupations:
  0.997  0.000  0.000 -0.000  0.001
  0.000  0.992  0.001 -0.000 -0.000
  0.000  0.001  0.992  0.000 -0.000
 -0.000 -0.000  0.000  1.001 -0.000
  0.001 -0.000 -0.000 -0.000  0.983
   spin  2
    eigenvalues:
  0.069  0.136  0.145  0.164  0.250
    eigenvectors:
  0.000  0.000  0.910  0.073  0.017
  0.000  0.500  0.036  0.463  0.000
  0.000  0.500  0.036  0.463  0.000
  1.000  0.000  0.000  0.000  0.000
  0.000  0.000  0.017  0.000  0.983
    occupations:
  0.148  0.003  0.003 -0.000 -0.013
  0.003  0.149  0.013 -0.000  0.001
  0.003  0.013  0.149  0.000  0.001
 -0.000 -0.000  0.000  0.069 -0.000
 -0.013  0.001  0.001 -0.000  0.249
atomic mag. moment =     4.201633
atom    2   Tr[ns(na)] (up, down, total) =   0.76190  4.96609  5.72799
   spin  1
    eigenvalues:
  0.069  0.137  0.144  0.163  0.249
    eigenvectors:
  0.000  0.000  0.915  0.068  0.017
  0.000  0.500  0.034  0.466  0.000
  0.000  0.500  0.034  0.466  0.000
  1.000  0.000  0.000  0.000  0.000
  0.000  0.000  0.017  0.000  0.983
    occupations:
  0.147  0.003  0.003 -0.000 -0.013
  0.003  0.149  0.013 -0.001  0.001
  0.003  0.013  0.149  0.001  0.001
 -0.000 -0.001  0.001  0.069 -0.000
 -0.013  0.001  0.001 -0.000  0.247
   spin  2
    eigenvalues:
  0.983  0.990  0.994  0.997  1.001
    eigenvectors:
  0.005  0.000  0.003  0.992  0.000
  0.003  0.500  0.495  0.002  0.000
  0.003  0.500  0.495  0.002  0.000
  0.000  0.000  0.000  0.000  1.000
  0.989  0.000  0.006  0.004  0.000
    occupations:
  0.997  0.000  0.000 -0.000  0.001
  0.000  0.992  0.002 -0.000 -0.001
  0.000  0.002  0.992  0.000 -0.001
 -0.000 -0.000  0.000  1.001 -0.000
  0.001 -0.001 -0.001 -0.000  0.983
atomic mag. moment =    -4.204185
atom    3   Tr[ns(na)] (up, down, total) =   4.96582  0.76270  5.72852
   spin  1
    eigenvalues:
  0.983  0.990  0.994  0.997  1.001
    eigenvectors:
  0.005  0.000  0.002  0.992  0.000
  0.002  0.510  0.486  0.001  0.000
  0.003  0.490  0.506  0.002  0.000
  0.000  0.000  0.000  0.000  1.000
  0.990  0.000  0.005  0.005  0.000
    occupations:
  0.997  0.000  0.000  0.000  0.001
  0.000  0.992  0.002 -0.000 -0.000
  0.000  0.002  0.992  0.000 -0.001
  0.000 -0.000  0.000  1.001 -0.000
  0.001 -0.000 -0.001 -0.000  0.983
   spin  2
    eigenvalues:
  0.069  0.136  0.145  0.163  0.249
    eigenvectors:
  0.000  0.001  0.911  0.070  0.017
  0.000  0.502  0.026  0.472  0.000
  0.000  0.496  0.046  0.458  0.000
  1.000  0.000  0.000  0.000  0.000
  0.000  0.000  0.017  0.000  0.983
    occupations:
  0.148  0.003  0.003 -0.000 -0.013
  0.003  0.149  0.013 -0.001  0.001
  0.003  0.013  0.149  0.000  0.001
 -0.000 -0.001  0.000  0.069  0.000
 -0.013  0.001  0.001  0.000  0.248
atomic mag. moment =     4.203120
atom    4   Tr[ns(na)] (up, down, total) =   0.76266  4.96545  5.72811
   spin  1
    eigenvalues:
  0.069  0.136  0.145  0.163  0.250
    eigenvectors:
  0.000  0.001  0.911  0.071  0.017
  0.000  0.497  0.045  0.458  0.000
  0.000  0.501  0.027  0.471  0.000
  1.000  0.000  0.000  0.000  0.000
  0.000  0.000  0.017  0.000  0.983
    occupations:
  0.148  0.003  0.003  0.000 -0.013
  0.003  0.149  0.013 -0.000  0.001
  0.003  0.013  0.149  0.001  0.001
  0.000 -0.000  0.001  0.069 -0.000
 -0.013  0.001  0.001 -0.000  0.248
   spin  2
    eigenvalues:
  0.983  0.990  0.993  0.997  1.001
    eigenvectors:
  0.004  0.000  0.004  0.992  0.000
  0.002  0.489  0.506  0.002  0.000
  0.002  0.510  0.486  0.002  0.000
  0.000  0.000  0.000  0.000  1.000
  0.992  0.000  0.004  0.003  0.000
    occupations:
  0.997  0.000  0.000 -0.000  0.001
  0.000  0.992  0.001 -0.000 -0.000
  0.000  0.001  0.992  0.000 -0.000
 -0.000 -0.000  0.000  1.001  0.000
  0.001 -0.000 -0.000  0.000  0.983
atomic mag. moment =    -4.202787
atom    5   Tr[ns(na)] (up, down, total) =   0.76361  4.96556  5.72917
   spin  1
    eigenvalues:
  0.069  0.136  0.145  0.164  0.250
    eigenvectors:
  0.000  0.000  0.910  0.072  0.017
  0.000  0.500  0.036  0.464  0.000
  0.000  0.500  0.036  0.464  0.000
  1.000  0.000  0.000  0.000  0.000
  0.000  0.000  0.017  0.000  0.982
    occupations:
  0.148  0.003  0.003 -0.000 -0.014
  0.003  0.149  0.013 -0.000  0.001
  0.003  0.013  0.149  0.000  0.001
 -0.000 -0.000  0.000  0.069 -0.000
 -0.014  0.001  0.001 -0.000  0.248
   spin  2
    eigenvalues:
  0.983  0.990  0.993  0.997  1.001
    eigenvectors:
  0.006  0.000  0.001  0.993  0.000
  0.002  0.500  0.497  0.001  0.000
  0.002  0.500  0.497  0.001  0.000
  0.000  0.000  0.000  0.000  1.000
  0.991  0.000  0.004  0.005  0.000
    occupations:
  0.997  0.000  0.000 -0.000  0.001
  0.000  0.992  0.002 -0.000 -0.000
  0.000  0.002  0.992  0.000 -0.000
 -0.000 -0.000  0.000  1.001 -0.000
  0.001 -0.000 -0.000 -0.000  0.983
atomic mag. moment =    -4.201952
atom    6   Tr[ns(na)] (up, down, total) =   4.96572  0.76175  5.72747
   spin  1
    eigenvalues:
  0.983  0.990  0.994  0.997  1.001
    eigenvectors:
  0.003  0.000  0.005  0.991  0.000
  0.002  0.500  0.495  0.003  0.000
  0.002  0.500  0.495  0.003  0.000
  0.000  0.000  0.000  0.000  1.000
  0.992  0.000  0.005  0.003  0.000
    occupations:
  0.997  0.000  0.000 -0.000  0.001
  0.000  0.992  0.002 -0.000 -0.000
  0.000  0.002  0.992  0.000 -0.000
 -0.000 -0.000  0.000  1.001 -0.000
  0.001 -0.000 -0.000 -0.000  0.983
   spin  2
    eigenvalues:
  0.069  0.136  0.144  0.163  0.249
    eigenvectors:
  0.000  0.000  0.914  0.069  0.017
  0.000  0.500  0.035  0.465  0.000
  0.000  0.500  0.035  0.465  0.000
  1.000  0.000  0.000  0.000  0.000
  0.000  0.000  0.016  0.000  0.983
    occupations:
  0.147  0.003  0.003 -0.000 -0.013
  0.003  0.149  0.013 -0.001  0.001
  0.003  0.013  0.149  0.001  0.001
 -0.000 -0.001  0.001  0.069 -0.000
 -0.013  0.001  0.001 -0.000  0.248
atomic mag. moment =     4.203970
atom    7   Tr[ns(na)] (up, down, total) =   4.96582  0.76270  5.72852
   spin  1
    eigenvalues:
  0.983  0.990  0.994  0.997  1.001
    eigenvectors:
  0.005  0.000  0.002  0.992  0.000
  0.003  0.490  0.506  0.002  0.000
  0.002  0.510  0.486  0.001  0.000
  0.000  0.000  0.000  0.000  1.000
  0.990  0.000  0.005  0.005  0.000
    occupations:
  0.997  0.000  0.000 -0.000  0.001
  0.000  0.992  0.002 -0.000 -0.001
  0.000  0.002  0.992  0.000 -0.000
 -0.000 -0.000  0.000  1.001  0.000
  0.001 -0.001 -0.000  0.000  0.983
   spin  2
    eigenvalues:
  0.069  0.136  0.145  0.163  0.249
    eigenvectors:
  0.000  0.001  0.911  0.070  0.017
  0.000  0.496  0.046  0.458  0.000
  0.000  0.502  0.026  0.472  0.000
  1.000  0.000  0.000  0.000  0.000
  0.000  0.000  0.017  0.000  0.983
    occupations:
  0.148  0.003  0.003  0.000 -0.013
  0.003  0.149  0.013 -0.000  0.001
  0.003  0.013  0.149  0.001  0.001
  0.000 -0.000  0.001  0.069 -0.000
 -0.013  0.001  0.001 -0.000  0.248
atomic mag. moment =     4.203120
atom    8   Tr[ns(na)] (up, down, total) =   0.76266  4.96545  5.72811
   spin  1
    eigenvalues:
  0.069  0.136  0.145  0.163  0.250
    eigenvectors:
  0.000  0.001  0.911  0.071  0.017
  0.000  0.501  0.027  0.471  0.000
  0.000  0.497  0.045  0.458  0.000
  1.000  0.000  0.000  0.000  0.000
  0.000  0.000  0.017  0.000  0.983
    occupations:
  0.148  0.003  0.003 -0.000 -0.013
  0.003  0.149  0.013 -0.001  0.001
  0.003  0.013  0.149  0.000  0.001
 -0.000 -0.001  0.000  0.069  0.000
 -0.013  0.001  0.001  0.000  0.248
   spin  2
    eigenvalues:
  0.983  0.990  0.993  0.997  1.001
    eigenvectors:
  0.004  0.000  0.004  0.992  0.000
  0.002  0.510  0.486  0.002  0.000
  0.002  0.489  0.506  0.002  0.000
  0.000  0.000  0.000  0.000  1.000
  0.992  0.000  0.004  0.003  0.000
    occupations:
  0.997  0.000  0.000  0.000  0.001
  0.000  0.992  0.001 -0.000 -0.000
  0.000  0.001  0.992  0.000 -0.000
  0.000 -0.000  0.000  1.001 -0.000
  0.001 -0.000 -0.000 -0.000  0.983
atomic mag. moment =    -4.202787
N of occupied +U levels =   45.826596
 --- exit write_ns ---

 ------ SPIN UP ------------

          k = 0.0000 0.0000 0.0000 ( 13629 PWs)   bands (ev):

   -66.3876 -66.3850 -66.3826 -66.3825 -61.8325 -61.8324 -61.8285 -61.8282
   -35.1569 -35.1545 -35.1512 -35.1494 -35.1438 -35.1413 -35.1386 -35.1386
   -35.0881 -35.0849 -35.0827 -35.0807 -30.6726 -30.6714 -30.6671 -30.6637
   -30.6562 -30.6557 -30.6546 -30.6527 -30.6520 -30.6508 -30.6479 -30.6461
     5.9656   7.5890   7.6395   8.1351   8.1355   8.4387   8.4921   8.4924
     8.7012   8.7019   9.1674   9.1679   9.3996   9.4483   9.4579   9.4890
     9.4899   9.5545   9.6037   9.6068   9.6075   9.6176   9.6418   9.6643
     9.6935   9.6941   9.8002   9.8556   9.8557   9.9427   9.9431   9.9575
     9.9861  10.0212  10.0722  10.0723  10.1255  10.1713  10.1713  10.2069
    10.2320  10.2608  10.2610  10.2613  10.3107  10.4529  10.4530  10.5123
    10.5138  10.5889  10.6456  10.6710  10.6718  10.7017  10.7761  10.7815
    10.9262  10.9464  11.0095  11.0106  11.0785  11.0927  11.1171  11.1176
    11.1233  11.3196  11.3277  11.3353  11.4805  11.5772  11.7003  11.7008
    11.8031  11.8144  11.8145  11.8181  11.8448  11.9274  11.9294  12.0201
    12.0562  12.0569  12.2033  12.2165  12.2634  12.3297  12.3298  12.3479
    12.3830  12.4330  12.4338  12.5043  12.5107  12.5483  12.5594  12.5858
    12.5859  12.6885  12.6886  12.7307  12.7310  12.8351  13.0980  13.0981
    13.1609  13.1620  13.2154  13.2708  13.2712  14.1394  14.8341  15.0584
    15.0601  15.1714  15.1728  15.5820  15.7715  16.7617  16.8649  16.8871
    16.9321  16.9327  16.9443  17.0316  17.1298  17.1322  17.4131  17.4137
    17.4495  17.5883  17.5901  17.8403  17.9750  18.0038  18.0048  18.1585
    18.4910  18.6752  19.3541  19.3550  19.4551  19.4556  19.4903  19.5583
    19.5635  19.7172

[...]

          k =-0.1768-0.1768-0.1360 ( 13673 PWs)   bands (ev):

[...]

 ------ SPIN DOWN ----------

[...]

          k =-0.5303 0.1768 0.4081 ( 13670 PWs)   bands (ev):

[...]

          k = 0.0000 0.7071 1.3603 ( 13696 PWs)   bands (ev):

   -66.3863 -66.3863 -66.3841 -66.3816 -61.8327 -61.8323 -61.8281 -61.8281
   -35.1561 -35.1557 -35.1513 -35.1495 -35.1426 -35.1425 -35.1402 -35.1378
   -35.0871 -35.0863 -35.0829 -35.0806 -30.6722 -30.6721 -30.6652 -30.6651
   -30.6562 -30.6559 -30.6534 -30.6531 -30.6518 -30.6514 -30.6466 -30.6465
     7.8705   7.8705   7.9544   7.9545   8.6315   8.6325   8.6613   8.6616
     8.7873   8.7875   8.8373   8.8380   9.0585   9.0589   9.0669   9.0674
     9.1624   9.1627   9.2076   9.2076   9.3110   9.3112   9.4744   9.4746
     9.5574   9.5575   9.6243   9.6249   9.6495   9.6498   9.7087   9.7092
     9.8217   9.8221   9.9889   9.9891  10.0747  10.0748  10.1129  10.1132
    10.2048  10.2050  10.2447  10.2452  10.5356  10.5360  10.5443  10.5448
    10.9054  10.9054  10.9708  10.9709  10.9801  10.9804  11.0743  11.0744
    11.1786  11.1789  11.2117  11.2117  11.3987  11.3988  11.4447  11.4448
    11.5526  11.5535  11.6423  11.6425  11.7427  11.7430  11.9300  11.9307
    11.9918  11.9922  12.0120  12.0123  12.0251  12.0251  12.0550  12.0554
    12.0797  12.0802  12.0917  12.0921  12.2204  12.2208  12.2462  12.2463
    12.2966  12.2967  12.3578  12.3585  12.4292  12.4297  12.5376  12.5381
    12.6420  12.6423  12.6904  12.6904  12.7023  12.7025  12.8312  12.8318
    13.1573  13.1577  13.3800  13.3802  13.4362  13.4368  13.7718  13.7726
    14.3646  14.3646  14.7296  14.7302  15.8884  15.8891  16.1583  16.1594
    16.4176  16.4181  16.7121  16.7129  17.2518  17.2527  17.2650  17.2663
    17.4318  17.4337  17.5122  17.5131  17.6282  17.6292  17.6976  17.6989
    18.1331  18.1338  18.2114  18.2125  18.3652  18.3666  18.4891  18.4898
    20.5396  20.5397

     the Fermi energy is    15.5728 ev

!    total energy              =  -14693.94006163 Ry
     Harris-Foulkes estimate   =  -14693.94004490 Ry
     estimated scf accuracy    <       0.00000062 Ry

     total all-electron energy =   -626921.535784 Ry

     The total energy is the sum of the following terms:

     one-electron contribution =    -698.61648502 Ry
     hartree contribution      =     651.71179442 Ry
     xc contribution           =    -738.08416134 Ry
     ewald contribution        =   -2207.56121140 Ry
     Hubbard energy            =       0.46882338 Ry
     one-center paw contrib.   =  -11701.85882166 Ry

     total magnetization       =     0.00 Bohr mag/cell
     absolute magnetization    =    36.81 Bohr mag/cell

     convergence has been achieved in  19 iterations

     Writing output data file mnau2.save/

     General routines

     Parallel routines

     Hubbard U routines

   This run was terminated on:  13:31: 7  26Mar2019

   JOB DONE.