     Program PWSCF v.6.3MaX starts on 26Mar2019 at 12: 4:23

     R & G space division:  proc/nbgrp/npool/nimage =      16
     Waiting for input...
     Reading input from standard input

     Current dimensions of program PWSCF are:
     Max number of different atomic species (ntypx) = 10
     Max number of k-points (npk) =  40000
     Max angular momentum in pseudopotentials (lmaxx) =  3
     Message from routine read_upf::
     Pseudo file ./pseudo/Mn.pbe-spn-kjpaw_psl.0.3.1.UPF has been successfully fixed on the fly.
To avoid this message in the future you can permanently fix
 your pseudo files following instructions given in:
               file Mn.pbe-spn-kjpaw_psl.0.3.1.UPF: wavefunction(s)  3P 3D renormalized
     Message from routine read_upf::
     Pseudo file ./pseudo/Mn.pbe-spn-kjpaw_psl.0.3.1.UPF has been successfully fixed on the fly.
To avoid this message in the future you can permanently fix
 your pseudo files following instructions given in:
               file Mn.pbe-spn-kjpaw_psl.0.3.1.UPF: wavefunction(s)  3P 3D renormalized
     Message from routine read_upf::
     Pseudo file ./pseudo/Au.pbe-dn-kjpaw_psl.0.1.UPF has been successfully fixed on the fly.
To avoid this message in the future you can permanently fix
 your pseudo files following instructions given in:
               file Au.pbe-dn-kjpaw_psl.0.1.UPF: wavefunction(s)  6S 6P 5D renormalized

     bravais-lattice index     =            0
     lattice parameter (alat)  =      18.0125  a.u.
     unit-cell volume          =    2685.0513 (a.u.)^3
     number of atoms/cell      =           24
     number of atomic types    =            3
     number of electrons       =       296.00
     number of Kohn-Sham states=          178
     kinetic-energy cutoff     =      45.0000  Ry
     charge density cutoff     =     400.0000  Ry
     convergence threshold     =      1.0E-06
     mixing beta               =       0.1000
     number of iterations used =            8  plain     mixing
     Exchange-correlation      = SLA PW PBX PBC ( 1  4  3  4 0 0)

     celldm(1)=  18.012490  celldm(2)=   0.000000  celldm(3)=   0.000000
     celldm(4)=   0.000000  celldm(5)=   0.000000  celldm(6)=   0.000000

     crystal axes: (cart. coord. in units of alat)
               a(1) = (   0.707107  -0.707107   0.000000 )
               a(2) = (  -0.707107  -0.707107   0.000000 )
               a(3) = (   0.176777   0.176777  -0.459443 )

     reciprocal axes: (cart. coord. in units 2 pi/alat)
               b(1) = (  0.707107 -0.707107  0.000000 )
               b(2) = ( -0.707107 -0.707107 -0.544138 )
               b(3) = (  0.000000  0.000000 -2.176550 )

     PseudoPot. # 1 for Mn read from file:
     ./pseudo/Mn.pbe-spn-kjpaw_psl.0.3.1.UPF
     MD5 check sum: 7eef95dd2aae66803482eea66ebeebf1
     Pseudo is Projector augmented-wave + core cor, Zval = 15.0
     Generated using "atomic" code by A. Dal Corso v.5.0.99 svn rev. 10869
     Shape of augmentation charge: PSQ
     Using radial grid of 1187 points,  6 beta functions with:
                l(1) =   0
                l(2) =   0
                l(3) =   1
                l(4) =   1
                l(5) =   2
                l(6) =   2
     Q(r) pseudized with 0 coefficients

     PseudoPot. # 2 for Mn read from file:
     ./pseudo/Mn.pbe-spn-kjpaw_psl.0.3.1.UPF
     MD5 check sum: 7eef95dd2aae66803482eea66ebeebf1
     Pseudo is Projector augmented-wave + core cor, Zval = 15.0
     Generated using "atomic" code by A. Dal Corso v.5.0.99 svn rev. 10869
     Shape of augmentation charge: PSQ
     Using radial grid of 1187 points,  6 beta functions with:
                l(1) =   0
                l(2) =   0
                l(3) =   1
                l(4) =   1
                l(5) =   2
                l(6) =   2
     Q(r) pseudized with 0 coefficients

     PseudoPot. # 3 for Au read from file:
     ./pseudo/Au.pbe-dn-kjpaw_psl.0.1.UPF
     MD5 check sum: 5c9b92683623e7ae2ab3f8e525febab6
     Pseudo is Projector augmented-wave + core cor, Zval = 11.0
     Generated using "atomic" code by A. Dal Corso v.5.0.2 svn rev. 9415
     Shape of augmentation charge: PSQ
     Using radial grid of 1279 points,  6 beta functions with:
                l(1) =   0
                l(2) =   0
                l(3) =   1
                l(4) =   1
                l(5) =   2
                l(6) =   2
     Q(r) pseudized with 0 coefficients

     atomic species   valence    mass     pseudopotential
        Mn1           15.00    54.93800     Mn( 1.00)
        Mn2           15.00    54.93800     Mn( 1.00)
        Au            11.00   196.96600     Au( 1.00)

     Starting magnetic structure
     atomic species   magnetization
        Mn1          1.000
        Mn2         -1.000
        Au           0.000

     Full LDA+U calculation (l_max = 2) with parameters (eV):
     U(  1) =   3.1200   J(  1) =   0.7000   B(  1) =   0.0803
     U(  2) =   3.1200   J(  2) =   0.7000   B(  2) =   0.0803

      2 Sym. Ops., with inversion, found ( 1 have fractional translation)

   Cartesian axes

     site n.     atom                  positions (alat units)
         1           Mn1 tau(   1) = (   0.3535534  -0.3535534   0.0000000  )
         2           Mn1 tau(   2) = (   0.0000000   0.0000000   0.0000000  )
         3           Mn2 tau(   3) = (   0.0000000  -0.3535534   0.0000000  )
         4           Mn1 tau(   4) = (   0.3535534  -0.7071068   0.0000000  )
         5           Mn1 tau(   5) = (  -0.3535534  -0.3535534   0.0000000  )
         6           Mn2 tau(   6) = (   0.0000000  -0.7071068   0.0000000  )
         7           Mn1 tau(   7) = (  -0.3535534  -0.7071068   0.0000000  )
         8           Mn1 tau(   8) = (   0.0000000  -1.0606602   0.0000000  )
         9           Au  tau(   9) = (  -0.1767767  -0.1767767  -0.1470216  )
        10           Au  tau(  10) = (   0.1767767  -0.5303301  -0.1470216  )
        11           Au  tau(  11) = (  -0.1767767  -0.5303301  -0.1470216  )
        12           Au  tau(  12) = (   0.1767767  -0.8838835  -0.1470216  )
        13           Au  tau(  13) = (  -0.5303301  -0.5303301  -0.1470216  )
        14           Au  tau(  14) = (  -0.1767767  -0.8838835  -0.1470216  )
        15           Au  tau(  15) = (   0.5303301  -0.5303301  -0.1470216  )
        16           Au  tau(  16) = (   0.1767767  -0.1767767  -0.1470216  )
        17           Au  tau(  17) = (   0.3535534  -0.3535534  -0.3124210  )
        18           Au  tau(  18) = (   0.0000000   0.0000000  -0.3124210  )
        19           Au  tau(  19) = (   0.0000000  -0.3535534  -0.3124210  )
        20           Au  tau(  20) = (   0.3535534  -0.7071068  -0.3124210  )
        21           Au  tau(  21) = (  -0.3535534  -0.3535534  -0.3124210  )
        22           Au  tau(  22) = (  -0.0000000  -0.7071068  -0.3124210  )
        23           Au  tau(  23) = (  -0.3535534  -0.7071068  -0.3124210  )
        24           Au  tau(  24) = (   0.0000000  -1.0606602  -0.3124210  )

     number of k points=    36 (tetrahedron method)
                       cart. coord. in units 2pi/alat
        k(    1) = (   0.0000000   0.0000000   0.0000000), wk =   0.0156250
        k(    2) = (   0.0000000   0.0000000  -0.5441376), wk =   0.0312500
        k(    3) = (   0.0000000   0.0000000   1.0882752), wk =   0.0156250
        k(    4) = (  -0.1767767  -0.1767767  -0.1360344), wk =   0.0312500
        k(    5) = (  -0.1767767  -0.1767767  -0.6801720), wk =   0.0312500
        k(    6) = (  -0.1767767  -0.1767767   0.9522408), wk =   0.0312500
        k(    7) = (  -0.1767767  -0.1767767   0.4081032), wk =   0.0312500
        k(    8) = (   0.3535534   0.3535534   0.2720688), wk =   0.0156250
        k(    9) = (   0.3535534   0.3535534  -0.2720688), wk =   0.0312500
        k(   10) = (   0.3535534   0.3535534   1.3603439), wk =   0.0156250
        k(   11) = (   0.1767767  -0.1767767   0.0000000), wk =   0.0312500
        k(   12) = (   0.1767767  -0.1767767  -0.5441376), wk =   0.0312500
        k(   13) = (   0.1767767  -0.1767767   1.0882752), wk =   0.0312500
        k(   14) = (   0.0000000  -0.3535534  -0.1360344), wk =   0.0312500
        k(   15) = (   0.0000000  -0.3535534  -0.6801720), wk =   0.0312500
        k(   16) = (   0.0000000  -0.3535534   0.9522408), wk =   0.0312500
        k(   17) = (   0.0000000  -0.3535534   0.4081032), wk =   0.0312500
        k(   18) = (   0.5303301   0.1767767   0.2720688), wk =   0.0312500
        k(   19) = (   0.5303301   0.1767767  -0.2720688), wk =   0.0312500
        k(   20) = (   0.5303301   0.1767767   1.3603439), wk =   0.0312500
        k(   21) = (  -0.3535534   0.3535534   0.0000000), wk =   0.0156250
        k(   22) = (  -0.3535534   0.3535534  -0.5441376), wk =   0.0312500
        k(   23) = (  -0.3535534   0.3535534   1.0882752), wk =   0.0156250
        k(   24) = (  -0.5303301   0.1767767  -0.1360344), wk =   0.0312500
        k(   25) = (  -0.5303301   0.1767767  -0.6801720), wk =   0.0312500
        k(   26) = (  -0.5303301   0.1767767   0.9522408), wk =   0.0312500
        k(   27) = (  -0.5303301   0.1767767   0.4081032), wk =   0.0312500
        k(   28) = (   0.0000000   0.7071068   0.2720688), wk =   0.0156250
        k(   29) = (   0.0000000   0.7071068  -0.2720688), wk =   0.0312500
        k(   30) = (   0.0000000   0.7071068   1.3603439), wk =   0.0156250
        k(   31) = (   0.1767767  -0.1767767   0.5441376), wk =   0.0312500
        k(   32) = (   0.3535534   0.0000000   0.1360344), wk =   0.0312500
        k(   33) = (   0.3535534   0.0000000   0.6801720), wk =   0.0312500
        k(   34) = (   0.3535534   0.0000000  -0.9522408), wk =   0.0312500
        k(   35) = (   0.3535534   0.0000000  -0.4081032), wk =   0.0312500
        k(   36) = (  -0.1767767  -0.5303301   0.2720688), wk =   0.0312500

     Check: negative/imaginary core charge=   -0.000006    0.000000

     Initial potential from superposition of free atoms

     starting charge  295.99426, renormalised to  296.00000
     Number of +U iterations with fixed ns =  0
     Starting occupations:
 --- enter write_ns ---
 LDA+U parameters:
U(  1) =   3.1200   J(  1) =   0.7000   B(  1) =   0.0803
U(  2) =   3.1200   J(  2) =   0.7000   B(  2) =   0.0803
atom    1   Tr[ns(na)] (up, down, total) =   5.00000  0.00000  5.00000
   spin  1
    eigenvalues:
  1.000  1.000  1.000  1.000  1.000
    eigenvectors:
  1.000  0.000  0.000  0.000  0.000
  0.000  1.000  0.000  0.000  0.000
  0.000  0.000  1.000  0.000  0.000
  0.000  0.000  0.000  1.000  0.000
  0.000  0.000  0.000  0.000  1.000
    occupations:
  1.000  0.000  0.000  0.000  0.000
  0.000  1.000  0.000  0.000  0.000
  0.000  0.000  1.000  0.000  0.000
  0.000  0.000  0.000  1.000  0.000
  0.000  0.000  0.000  0.000  1.000
   spin  2
    eigenvalues:
  0.000  0.000  0.000  0.000  0.000
    eigenvectors:
  1.000  0.000  0.000  0.000  0.000
  0.000  1.000  0.000  0.000  0.000
  0.000  0.000  1.000  0.000  0.000
  0.000  0.000  0.000  1.000  0.000
  0.000  0.000  0.000  0.000  1.000
    occupations:
  0.000  0.000  0.000  0.000  0.000
  0.000  0.000  0.000  0.000  0.000
  0.000  0.000  0.000  0.000  0.000
[...]
  0.000  0.000  0.000  0.003  0.997
  0.998  0.001  0.001  0.000  0.000
    occupations:
  1.003 -0.000 -0.000 -0.000  0.000
 -0.000  1.003  0.000 -0.000 -0.000
 -0.000  0.000  1.003  0.000 -0.000
 -0.000 -0.000  0.000  1.004 -0.000
  0.000 -0.000 -0.000 -0.000  1.003
   spin  2
    eigenvalues:
  0.040  0.049  0.054  0.055  0.073
    eigenvectors:
  0.012  0.963  0.007  0.018  0.000
  0.000  0.001  0.881  0.117  0.001
  0.000  0.025  0.110  0.865  0.000
  0.988  0.011  0.001  0.000  0.000
  0.000  0.000  0.001  0.000  0.999
    occupations:
  0.049 -0.000  0.001  0.001 -0.000
 -0.000  0.054  0.000 -0.000  0.000
  0.001  0.000  0.055  0.000 -0.000
  0.001 -0.000  0.000  0.040 -0.000
 -0.000  0.000 -0.000 -0.000  0.073
atomic mag. moment =     4.743134
N of occupied +U levels =   42.308314
 --- exit write_ns ---

     total energy              =  -14679.17097991 Ry
     Harris-Foulkes estimate   =  -14669.79066515 Ry
     estimated scf accuracy    <      21.28015894 Ry

     total magnetization       =    20.96 Bohr mag/cell
     absolute magnetization    =    43.58 Bohr mag/cell

     iteration #  2     ecut=    45.00 Ry     beta= 0.10
     Davidson diagonalization with overlap
     ethr =  7.19E-03,  avg # of iterations =  1.0

[...]

     iteration # 12     ecut=    45.00 Ry     beta= 0.10
     Davidson diagonalization with overlap
     c_bands:  1 eigenvalues not converged
     ethr =  1.14E-06,  avg # of iterations =  3.6

[...]

     total energy              =  -14693.95240907 Ry
     Harris-Foulkes estimate   =  -14693.95240560 Ry
     estimated scf accuracy    <       0.00000149 Ry

[...]

     iteration # 20     ecut=    45.00 Ry     beta= 0.10
     Davidson diagonalization with overlap
     ethr =  5.03E-10,  avg # of iterations =  2.3

     Magnetic moment per site:
     atom:    1    charge:   13.5449    magn:    4.2002    constr:    0.0000
     atom:    2    charge:   13.5465    magn:    4.1795    constr:    0.0000
     atom:    3    charge:   13.5316    magn:   -4.2774    constr:    0.0000
     atom:    4    charge:   13.5448    magn:    4.1908    constr:    0.0000
     atom:    5    charge:   13.5448    magn:    4.1908    constr:    0.0000
     atom:    6    charge:   13.5316    magn:   -4.2774    constr:    0.0000
     atom:    7    charge:   13.5449    magn:    4.2002    constr:    0.0000
     atom:    8    charge:   13.5465    magn:    4.1795    constr:    0.0000
     atom:    9    charge:    9.0904    magn:    0.0161    constr:    0.0000
     atom:   10    charge:    9.0905    magn:   -0.0206    constr:    0.0000
     atom:   11    charge:    9.0911    magn:   -0.0042    constr:    0.0000
     atom:   12    charge:    9.0888    magn:    0.0125    constr:    0.0000
     atom:   13    charge:    9.0893    magn:    0.0392    constr:    0.0000
     atom:   14    charge:    9.0909    magn:    0.0174    constr:    0.0000
     atom:   15    charge:    9.0905    magn:    0.0424    constr:    0.0000
     atom:   16    charge:    9.0906    magn:   -0.0014    constr:    0.0000
     atom:   17    charge:    9.0911    magn:   -0.0042    constr:    0.0000
     atom:   18    charge:    9.0888    magn:    0.0125    constr:    0.0000
     atom:   19    charge:    9.0905    magn:   -0.0206    constr:    0.0000
     atom:   20    charge:    9.0904    magn:    0.0161    constr:    0.0000
     atom:   21    charge:    9.0905    magn:    0.0424    constr:    0.0000
     atom:   22    charge:    9.0906    magn:   -0.0014    constr:    0.0000
     atom:   23    charge:    9.0909    magn:    0.0174    constr:    0.0000
     atom:   24    charge:    9.0893    magn:    0.0392    constr:    0.0000

     End of self-consistent calculation
 --- enter write_ns ---
 LDA+U parameters:
U(  1) =   3.1200   J(  1) =   0.7000   B(  1) =   0.0803
U(  2) =   3.1200   J(  2) =   0.7000   B(  2) =   0.0803
atom    1   Tr[ns(na)] (up, down, total) =   4.96707  0.76694  5.73401
   spin  1
    eigenvalues:
  0.983  0.992  0.994  0.996  1.002
    eigenvectors:
  0.000  0.028  0.005  0.965  0.002
  0.003  0.536  0.431  0.029  0.001
  0.007  0.427  0.563  0.003  0.000
  0.000  0.000  0.000  0.003  0.996
  0.990  0.010  0.000  0.000  0.000
    occupations:
  0.996 -0.001 -0.000  0.000  0.000
 -0.001  0.993 -0.001 -0.000  0.000
 -0.000 -0.001  0.993 -0.000  0.001
  0.000 -0.000 -0.000  1.002  0.000
  0.000  0.000  0.001  0.000  0.984
   spin  2
    eigenvalues:
  0.067  0.124  0.151  0.158  0.266
    eigenvectors:
  0.000  0.952  0.030  0.017  0.001
  0.000  0.014  0.864  0.121  0.001
  0.000  0.031  0.103  0.853  0.013
  1.000  0.000  0.000  0.000  0.000
  0.000  0.003  0.003  0.009  0.986
    occupations:
  0.126 -0.003 -0.005 -0.000  0.005
 -0.003  0.151 -0.003 -0.000  0.003
 -0.005 -0.003  0.158 -0.001  0.013
 -0.000 -0.000 -0.001  0.067  0.000
  0.005  0.003  0.013  0.000  0.265
atomic mag. moment =     4.200130
atom    2   Tr[ns(na)] (up, down, total) =   4.96412  0.78360  5.74772
   spin  1
    eigenvalues:
  0.982  0.992  0.992  0.996  1.001
    eigenvectors:
  0.000  0.003  0.015  0.979  0.003
  0.000  0.494  0.489  0.016  0.001
  0.001  0.502  0.494  0.002  0.000
  0.000  0.000  0.001  0.003  0.996
  0.999  0.000  0.001  0.000  0.000
    occupations:
  0.996  0.001  0.000 -0.000  0.000
  0.001  0.992  0.000  0.000 -0.000
  0.000  0.000  0.992  0.000 -0.000
 -0.000  0.000  0.000  1.001 -0.000
  0.000 -0.000 -0.000 -0.000  0.982
   spin  2
    eigenvalues:
  0.067  0.145  0.147  0.157  0.267
    eigenvectors:
  0.000  0.022  0.936  0.041  0.001
  0.000  0.088  0.057  0.854  0.001
  0.000  0.883  0.005  0.104  0.007
  0.999  0.000  0.000  0.000  0.000
  0.000  0.007  0.002  0.000  0.991
    occupations:
  0.148  0.002  0.001 -0.000 -0.004
  0.002  0.156  0.003  0.002  0.004
  0.001  0.003  0.147  0.000 -0.010
 -0.000  0.002  0.000  0.067  0.001
 -0.004  0.004 -0.010  0.001  0.266
atomic mag. moment =     4.180514
atom    3   Tr[ns(na)] (up, down, total) =   0.70615  4.97261  5.67876
   spin  1
    eigenvalues:
  0.072  0.123  0.138  0.145  0.228
    eigenvectors:
  0.000  0.985  0.012  0.001  0.001
  0.002  0.006  0.189  0.795  0.009
  0.000  0.008  0.713  0.200  0.078
  0.998  0.000  0.000  0.002  0.000
  0.000  0.000  0.086  0.002  0.912
    occupations:
  0.124  0.002  0.002  0.001  0.003
  0.002  0.144 -0.001 -0.003  0.008
  0.002 -0.001  0.146  0.001  0.024
  0.001 -0.003  0.001  0.072 -0.001
  0.003  0.008  0.024 -0.001  0.220
   spin  2
    eigenvalues:
  0.987  0.993  0.994  0.998  1.002
    eigenvectors:
  0.000  0.011  0.046  0.939  0.004
  0.000  0.600  0.353  0.046  0.001
  0.003  0.386  0.600  0.011  0.000
  0.000  0.000  0.000  0.004  0.995
  0.997  0.002  0.001  0.000  0.000
    occupations:
  0.998 -0.001 -0.000  0.000 -0.000
 -0.001  0.993  0.001 -0.000  0.000
 -0.000  0.001  0.993 -0.000 -0.000
  0.000 -0.000 -0.000  1.002  0.000
 -0.000  0.000 -0.000  0.000  0.987
atomic mag. moment =    -4.266461
atom    4   Tr[ns(na)] (up, down, total) =   4.96534  0.77236  5.73770
   spin  1
    eigenvalues:
  0.983  0.991  0.993  0.997  1.002
    eigenvectors:
  0.001  0.002  0.028  0.965  0.003
  0.001  0.480  0.510  0.008  0.001
  0.002  0.515  0.460  0.023  0.000
  0.000  0.000  0.001  0.003  0.996
  0.996  0.003  0.000  0.001  0.000
    occupations:
  0.997  0.000  0.001  0.000  0.000
  0.000  0.992  0.001 -0.000 -0.000
  0.001  0.001  0.992 -0.000  0.000
  0.000 -0.000 -0.000  1.002  0.000
  0.000 -0.000  0.000  0.000  0.983
   spin  2
    eigenvalues:
  0.067  0.140  0.147  0.160  0.259
    eigenvectors:
  0.000  0.894  0.066  0.029  0.011
  0.001  0.026  0.779  0.194  0.000
  0.000  0.064  0.154  0.772  0.009
  0.999  0.000  0.001  0.000  0.000
  0.000  0.015  0.000  0.005  0.980
    occupations:
  0.142 -0.000  0.002  0.000 -0.013
 -0.000  0.149  0.005 -0.002  0.001
  0.002  0.005  0.157  0.001  0.010
  0.000 -0.002  0.001  0.067 -0.001
 -0.013  0.001  0.010 -0.001  0.257
atomic mag. moment =     4.192983
atom    5   Tr[ns(na)] (up, down, total) =   4.96534  0.77236  5.73770
   spin  1
    eigenvalues:
  0.983  0.991  0.993  0.997  1.002
    eigenvectors:
  0.001  0.002  0.028  0.965  0.003
  0.001  0.480  0.510  0.008  0.001
  0.002  0.515  0.460  0.023  0.000
  0.000  0.000  0.001  0.003  0.996
  0.996  0.003  0.000  0.001  0.000
    occupations:
  0.997  0.000  0.001  0.000  0.000
  0.000  0.992  0.001 -0.000 -0.000
  0.001  0.001  0.992 -0.000  0.000
  0.000 -0.000 -0.000  1.002  0.000
  0.000 -0.000  0.000  0.000  0.983
   spin  2
    eigenvalues:
  0.067  0.140  0.147  0.160  0.259
    eigenvectors:
  0.000  0.894  0.066  0.029  0.011
  0.001  0.026  0.779  0.194  0.000
  0.000  0.064  0.154  0.772  0.009
  0.999  0.000  0.001  0.000  0.000
  0.000  0.015  0.000  0.005  0.980
    occupations:
  0.142 -0.000  0.002  0.000 -0.013
 -0.000  0.149  0.005 -0.002  0.001
  0.002  0.005  0.157  0.001  0.010
  0.000 -0.002  0.001  0.067 -0.001
 -0.013  0.001  0.010 -0.001  0.257
atomic mag. moment =     4.192983
atom    6   Tr[ns(na)] (up, down, total) =   0.70615  4.97261  5.67876
   spin  1
    eigenvalues:
  0.072  0.123  0.138  0.145  0.228
    eigenvectors:
  0.000  0.985  0.012  0.001  0.001
  0.002  0.006  0.189  0.795  0.009
  0.000  0.008  0.713  0.200  0.078
  0.998  0.000  0.000  0.002  0.000
  0.000  0.000  0.086  0.002  0.912
    occupations:
  0.124  0.002  0.002  0.001  0.003
  0.002  0.144 -0.001 -0.003  0.008
  0.002 -0.001  0.146  0.001  0.024
  0.001 -0.003  0.001  0.072 -0.001
  0.003  0.008  0.024 -0.001  0.220
   spin  2
    eigenvalues:
  0.987  0.993  0.994  0.998  1.002
    eigenvectors:
  0.000  0.011  0.046  0.939  0.004
  0.000  0.600  0.353  0.046  0.001
  0.003  0.386  0.600  0.011  0.000
  0.000  0.000  0.000  0.004  0.995
  0.997  0.002  0.001  0.000  0.000
    occupations:
  0.998 -0.001 -0.000  0.000 -0.000
 -0.001  0.993  0.001 -0.000  0.000
 -0.000  0.001  0.993 -0.000 -0.000
  0.000 -0.000 -0.000  1.002  0.000
 -0.000  0.000 -0.000  0.000  0.987
atomic mag. moment =    -4.266461
atom    7   Tr[ns(na)] (up, down, total) =   4.96707  0.76694  5.73401
   spin  1
    eigenvalues:
  0.983  0.992  0.994  0.996  1.002
    eigenvectors:
  0.000  0.028  0.005  0.965  0.002
  0.003  0.536  0.431  0.029  0.001
  0.007  0.427  0.563  0.003  0.000
  0.000  0.000  0.000  0.003  0.996
  0.990  0.010  0.000  0.000  0.000
    occupations:
  0.996 -0.001 -0.000  0.000  0.000
 -0.001  0.993 -0.001 -0.000  0.000
 -0.000 -0.001  0.993 -0.000  0.001
  0.000 -0.000 -0.000  1.002  0.000
  0.000  0.000  0.001  0.000  0.984
   spin  2
    eigenvalues:
  0.067  0.124  0.151  0.158  0.266
    eigenvectors:
  0.000  0.952  0.030  0.017  0.001
  0.000  0.014  0.864  0.121  0.001
  0.000  0.031  0.103  0.853  0.013
  1.000  0.000  0.000  0.000  0.000
  0.000  0.003  0.003  0.009  0.986
    occupations:
  0.126 -0.003 -0.005 -0.000  0.005
 -0.003  0.151 -0.003 -0.000  0.003
 -0.005 -0.003  0.158 -0.001  0.013
 -0.000 -0.000 -0.001  0.067  0.000
  0.005  0.003  0.013  0.000  0.265
atomic mag. moment =     4.200130
atom    8   Tr[ns(na)] (up, down, total) =   4.96412  0.78360  5.74772
   spin  1
    eigenvalues:
  0.982  0.992  0.992  0.996  1.001
    eigenvectors:
  0.000  0.003  0.015  0.979  0.003
  0.000  0.494  0.489  0.016  0.001
  0.001  0.502  0.494  0.002  0.000
  0.000  0.000  0.001  0.003  0.996
  0.999  0.000  0.001  0.000  0.000
    occupations:
  0.996  0.001  0.000 -0.000  0.000
  0.001  0.992  0.000  0.000 -0.000
  0.000  0.000  0.992  0.000 -0.000
 -0.000  0.000  0.000  1.001 -0.000
  0.000 -0.000 -0.000 -0.000  0.982
   spin  2
    eigenvalues:
  0.067  0.145  0.147  0.157  0.267
    eigenvectors:
  0.000  0.022  0.936  0.041  0.001
  0.000  0.088  0.057  0.854  0.001
  0.000  0.883  0.005  0.104  0.007
  0.999  0.000  0.000  0.000  0.000
  0.000  0.007  0.002  0.000  0.991
    occupations:
  0.148  0.002  0.001 -0.000 -0.004
  0.002  0.156  0.003  0.002  0.004
  0.001  0.003  0.147  0.000 -0.010
 -0.000  0.002  0.000  0.067  0.001
 -0.004  0.004 -0.010  0.001  0.266
atomic mag. moment =     4.180514
N of occupied +U levels =   45.796363
 --- exit write_ns ---

 ------ SPIN UP ------------

          k = 0.0000 0.0000 0.0000 ( 13629 PWs)   bands (ev):

   -66.3623 -66.3620 -66.3496 -66.3494 -66.3197 -66.3193 -61.9332 -61.9327
   -35.1464 -35.1460 -35.1169 -35.1165 -35.1028 -35.1006 -35.0953 -35.0935
   -35.0878 -35.0877 -35.0736 -35.0697 -35.0617 -35.0570 -35.0561 -35.0523
   -35.0362 -35.0353 -30.7628 -30.7625 -30.7593 -30.7585 -30.7564 -30.7507
     5.9275   7.5522   7.5599   8.0831   8.0883   8.2700   8.3858   8.3886
     8.6988   8.6995   9.0368   9.0381   9.3321   9.3518   9.3617   9.3684
     9.4150   9.4151   9.4602   9.5346   9.5616   9.5663   9.5884   9.5944
     9.6239   9.6333   9.6529   9.7005   9.7103   9.8288   9.8563   9.9379
     9.9396   9.9439   9.9481   9.9979  10.0146  10.0499  10.0698  10.1263
    10.2047  10.2267  10.2549  10.2570  10.2898  10.3003  10.3247  10.4295
    10.4315  10.4601  10.4672  10.4939  10.4940  10.5279  10.5389  10.6359
    10.6365  10.6524  10.7002  10.7747  10.7993  10.8570  11.0234  11.0634
    11.0795  11.1363  11.1554  11.3210  11.3223  11.3337  11.3847  11.4472
    11.5928  11.6573  11.7053  11.7918  11.8113  11.8116  11.8214  11.8312
    11.8386  11.8936  11.9256  11.9262  11.9954  12.0381  12.1190  12.1764
    12.2490  12.2538  12.2710  12.2732  12.3454  12.3482  12.3559  12.4205
    12.4603  12.4922  12.5045  12.5112  12.5171  12.5920  12.6084  12.6692
    12.6745  12.6897  12.6958  12.7742  12.9019  12.9511  12.9587  12.9839
    13.2183  13.2542  13.2549  13.2711  13.2836  13.3063  13.3802  14.0977
    15.0408  15.0415  15.1911  15.4346  15.9931  16.3378  16.6500  16.8219
    16.9897  17.0589  17.2029  17.2341  17.4472  17.6850  17.8115  18.1640
    18.1826  18.2328  19.0460  19.0568  19.1069  19.1288  19.3423  19.3986
    19.4112  19.4663

[...]

          k =-0.1768-0.1768-0.1360 ( 13673 PWs)   bands (ev):

[...]

 ------ SPIN DOWN ----------

[...]

          k = 0.3536 0.0000-0.4081 ( 13687 PWs)   bands (ev):

[...]

          k =-0.1768-0.5303 0.2721 ( 13683 PWs)   bands (ev):

   -66.5536 -66.5533 -61.8082 -61.8079 -61.8034 -61.8030 -61.7864 -61.7860
   -35.3276 -35.3274 -35.2823 -35.2770 -35.2725 -35.2723 -30.6434 -30.6424
   -30.6402 -30.6389 -30.6383 -30.6375 -30.6342 -30.6325 -30.6303 -30.6265
   -30.6250 -30.6225 -30.6189 -30.6178 -30.6101 -30.6096 -30.6090 -30.6087
     6.7519   7.5927   7.7492   8.3274   8.5858   8.6137   8.7722   8.8665
     8.8796   8.9487   9.0645   9.1008   9.1281   9.1947   9.2771   9.3140
     9.3716   9.4057   9.4426   9.5020   9.5732   9.6294   9.6554   9.6724
     9.7175   9.7605   9.7801   9.8468   9.8828   9.8864   9.9248   9.9395
     9.9924  10.0763  10.1514  10.1761  10.2107  10.2753  10.2955  10.3424
    10.3656  10.3889  10.4793  10.5017  10.5796  10.6548  10.7757  10.7927
    10.8567  10.9026  10.9099  10.9715  11.0153  11.0463  11.1261  11.1317
    11.1781  11.1948  11.2207  11.2740  11.2966  11.3835  11.4277  11.4317
    11.4860  11.5423  11.6261  11.7045  11.7179  11.7690  11.8446  11.8717
    11.8966  11.9378  11.9823  12.0111  12.0486  12.1153  12.1674  12.1940
    12.2259  12.2814  12.3321  12.3682  12.3951  12.4567  12.5247  12.5396
    12.5712  12.5970  12.6368  12.6820  12.7141  12.8654  12.9051  13.0576
    13.1779  13.2171  13.4553  13.7231  13.8410  14.3695  14.5081  14.8863
    15.0957  15.2954  15.3630  15.4463  15.5715  15.7728  16.0690  16.3551
    16.8876  17.0084  17.1393  17.1882  17.2334  17.2531  17.3083  17.3463
    17.3936  17.4187  17.4371  17.4705  17.5063  17.5359  17.5708  17.6066
    17.6352  17.7778  17.9511  17.9730  18.0356  18.0867  18.1880  18.2426
    18.3035  18.4831  18.5736  18.6614  18.7368  18.8700  19.2462  20.0632
    20.3569  20.4892

     the Fermi energy is    15.5390 ev

!    total energy              =  -14693.95242351 Ry
     Harris-Foulkes estimate   =  -14693.95240821 Ry
     estimated scf accuracy    <       0.00000053 Ry

     total all-electron energy =   -626921.548145 Ry

     The total energy is the sum of the following terms:

     one-electron contribution =    -698.58281039 Ry
     hartree contribution      =     651.68166835 Ry
     xc contribution           =    -738.09198517 Ry
     ewald contribution        =   -2207.56121140 Ry
     Hubbard energy            =       0.46347826 Ry
     one-center paw contrib.   =  -11701.86156316 Ry

     total magnetization       =    16.93 Bohr mag/cell
     absolute magnetization    =    36.79 Bohr mag/cell

     convergence has been achieved in  20 iterations

     Writing output data file mnau2.save/

     General routines

     Parallel routines

     Hubbard U routines

   This run was terminated on:  12:25:34  26Mar2019

   JOB DONE.