     Program PWSCF v.6.3MaX starts on 26Mar2019 at 12:43:33

     R & G space division:  proc/nbgrp/npool/nimage =      16
     Waiting for input...
     Reading input from standard input

     Current dimensions of program PWSCF are:
     Max number of different atomic species (ntypx) = 10
     Max number of k-points (npk) =  40000
     Max angular momentum in pseudopotentials (lmaxx) =  3
     Message from routine read_upf::
     Pseudo file ./pseudo/Mn.pbe-spn-kjpaw_psl.0.3.1.UPF has been successfully fixed on the fly.
To avoid this message in the future you can permanently fix
 your pseudo files following instructions given in:
               file Mn.pbe-spn-kjpaw_psl.0.3.1.UPF: wavefunction(s)  3P 3D renormalized
     Message from routine read_upf::
     Pseudo file ./pseudo/Mn.pbe-spn-kjpaw_psl.0.3.1.UPF has been successfully fixed on the fly.
To avoid this message in the future you can permanently fix
 your pseudo files following instructions given in:
               file Mn.pbe-spn-kjpaw_psl.0.3.1.UPF: wavefunction(s)  3P 3D renormalized
     Message from routine read_upf::
     Pseudo file ./pseudo/Au.pbe-dn-kjpaw_psl.0.1.UPF has been successfully fixed on the fly.
To avoid this message in the future you can permanently fix
 your pseudo files following instructions given in:
               file Au.pbe-dn-kjpaw_psl.0.1.UPF: wavefunction(s)  6S 6P 5D renormalized

     bravais-lattice index     =            0
     lattice parameter (alat)  =      18.0125  a.u.
     unit-cell volume          =    2685.0513 (a.u.)^3
     number of atoms/cell      =           24
     number of atomic types    =            3
     number of electrons       =       296.00
     number of Kohn-Sham states=          178
     kinetic-energy cutoff     =      45.0000  Ry
     charge density cutoff     =     400.0000  Ry
     convergence threshold     =      1.0E-06
     mixing beta               =       0.1000
     number of iterations used =            8  plain     mixing
     Exchange-correlation      = SLA PW PBX PBC ( 1  4  3  4 0 0)

     celldm(1)=  18.012490  celldm(2)=   0.000000  celldm(3)=   0.000000
     celldm(4)=   0.000000  celldm(5)=   0.000000  celldm(6)=   0.000000

     crystal axes: (cart. coord. in units of alat)
               a(1) = (   0.707107  -0.707107   0.000000 )
               a(2) = (  -0.707107  -0.707107   0.000000 )
               a(3) = (   0.176777   0.176777  -0.459443 )

     reciprocal axes: (cart. coord. in units 2 pi/alat)
               b(1) = (  0.707107 -0.707107  0.000000 )
               b(2) = ( -0.707107 -0.707107 -0.544138 )
               b(3) = (  0.000000  0.000000 -2.176550 )

     PseudoPot. # 1 for Mn read from file:
     ./pseudo/Mn.pbe-spn-kjpaw_psl.0.3.1.UPF
     MD5 check sum: 7eef95dd2aae66803482eea66ebeebf1
     Pseudo is Projector augmented-wave + core cor, Zval = 15.0
     Generated using "atomic" code by A. Dal Corso v.5.0.99 svn rev. 10869
     Shape of augmentation charge: PSQ
     Using radial grid of 1187 points,  6 beta functions with:
                l(1) =   0
                l(2) =   0
                l(3) =   1
                l(4) =   1
                l(5) =   2
                l(6) =   2
     Q(r) pseudized with 0 coefficients

     PseudoPot. # 2 for Mn read from file:
     ./pseudo/Mn.pbe-spn-kjpaw_psl.0.3.1.UPF
     MD5 check sum: 7eef95dd2aae66803482eea66ebeebf1
     Pseudo is Projector augmented-wave + core cor, Zval = 15.0
     Generated using "atomic" code by A. Dal Corso v.5.0.99 svn rev. 10869
     Shape of augmentation charge: PSQ
     Using radial grid of 1187 points,  6 beta functions with:
                l(1) =   0
                l(2) =   0
                l(3) =   1
                l(4) =   1
                l(5) =   2
                l(6) =   2
     Q(r) pseudized with 0 coefficients

     PseudoPot. # 3 for Au read from file:
     ./pseudo/Au.pbe-dn-kjpaw_psl.0.1.UPF
     MD5 check sum: 5c9b92683623e7ae2ab3f8e525febab6
     Pseudo is Projector augmented-wave + core cor, Zval = 11.0
     Generated using "atomic" code by A. Dal Corso v.5.0.2 svn rev. 9415
     Shape of augmentation charge: PSQ
     Using radial grid of 1279 points,  6 beta functions with:
                l(1) =   0
                l(2) =   0
                l(3) =   1
                l(4) =   1
                l(5) =   2
                l(6) =   2
     Q(r) pseudized with 0 coefficients

     atomic species   valence    mass     pseudopotential
        Mn1           15.00    54.93800     Mn( 1.00)
        Mn2           15.00    54.93800     Mn( 1.00)
        Au            11.00   196.96600     Au( 1.00)

     Starting magnetic structure
     atomic species   magnetization
        Mn1          1.000
        Mn2         -1.000
        Au           0.000

     Full LDA+U calculation (l_max = 2) with parameters (eV):
     U(  1) =   3.1200   J(  1) =   0.7000   B(  1) =   0.0803
     U(  2) =   3.1200   J(  2) =   0.7000   B(  2) =   0.0803

      2 Sym. Ops. (no inversion) found

   Cartesian axes

     site n.     atom                  positions (alat units)
         1           Mn1 tau(   1) = (   0.3535534  -0.3535534   0.0000000  )
         2           Mn2 tau(   2) = (   0.0000000   0.0000000   0.0000000  )
         3           Mn2 tau(   3) = (   0.0000000  -0.3535534   0.0000000  )
         4           Mn1 tau(   4) = (   0.3535534  -0.7071068   0.0000000  )
         5           Mn1 tau(   5) = (  -0.3535534  -0.3535534   0.0000000  )
         6           Mn1 tau(   6) = (   0.0000000  -0.7071068   0.0000000  )
         7           Mn2 tau(   7) = (  -0.3535534  -0.7071068   0.0000000  )
         8           Mn1 tau(   8) = (   0.0000000  -1.0606602   0.0000000  )
         9           Au  tau(   9) = (  -0.1767767  -0.1767767  -0.1470216  )
        10           Au  tau(  10) = (   0.1767767  -0.5303301  -0.1470216  )
        11           Au  tau(  11) = (  -0.1767767  -0.5303301  -0.1470216  )
        12           Au  tau(  12) = (   0.1767767  -0.8838835  -0.1470216  )
        13           Au  tau(  13) = (  -0.5303301  -0.5303301  -0.1470216  )
        14           Au  tau(  14) = (  -0.1767767  -0.8838835  -0.1470216  )
        15           Au  tau(  15) = (   0.5303301  -0.5303301  -0.1470216  )
        16           Au  tau(  16) = (   0.1767767  -0.1767767  -0.1470216  )
        17           Au  tau(  17) = (   0.3535534  -0.3535534  -0.3124210  )
        18           Au  tau(  18) = (   0.0000000   0.0000000  -0.3124210  )
        19           Au  tau(  19) = (   0.0000000  -0.3535534  -0.3124210  )
        20           Au  tau(  20) = (   0.3535534  -0.7071068  -0.3124210  )
        21           Au  tau(  21) = (  -0.3535534  -0.3535534  -0.3124210  )
        22           Au  tau(  22) = (  -0.0000000  -0.7071068  -0.3124210  )
        23           Au  tau(  23) = (  -0.3535534  -0.7071068  -0.3124210  )
        24           Au  tau(  24) = (   0.0000000  -1.0606602  -0.3124210  )

     number of k points=    30 (tetrahedron method)
                       cart. coord. in units 2pi/alat
        k(    1) = (   0.0000000   0.0000000   0.0000000), wk =   0.0156250
        k(    2) = (   0.0000000   0.0000000  -0.5441376), wk =   0.0312500
        k(    3) = (   0.0000000   0.0000000   1.0882752), wk =   0.0156250
        k(    4) = (  -0.1767767  -0.1767767  -0.1360344), wk =   0.0312500
        k(    5) = (  -0.1767767  -0.1767767  -0.6801720), wk =   0.0312500
        k(    6) = (  -0.1767767  -0.1767767   0.9522408), wk =   0.0312500
        k(    7) = (  -0.1767767  -0.1767767   0.4081032), wk =   0.0312500
        k(    8) = (   0.3535534   0.3535534   0.2720688), wk =   0.0156250
        k(    9) = (   0.3535534   0.3535534  -0.2720688), wk =   0.0312500
        k(   10) = (   0.3535534   0.3535534   1.3603439), wk =   0.0156250
        k(   11) = (   0.1767767  -0.1767767   0.0000000), wk =   0.0312500
        k(   12) = (   0.1767767  -0.1767767  -0.5441376), wk =   0.0625000
        k(   13) = (   0.1767767  -0.1767767   1.0882752), wk =   0.0312500
        k(   14) = (   0.0000000  -0.3535534  -0.1360344), wk =   0.0625000
        k(   15) = (   0.0000000  -0.3535534  -0.6801720), wk =   0.0625000
        k(   16) = (   0.0000000  -0.3535534   0.9522408), wk =   0.0625000
        k(   17) = (   0.0000000  -0.3535534   0.4081032), wk =   0.0625000
        k(   18) = (   0.5303301   0.1767767   0.2720688), wk =   0.0312500
        k(   19) = (   0.5303301   0.1767767  -0.2720688), wk =   0.0625000
        k(   20) = (   0.5303301   0.1767767   1.3603439), wk =   0.0312500
        k(   21) = (  -0.3535534   0.3535534   0.0000000), wk =   0.0156250
        k(   22) = (  -0.3535534   0.3535534  -0.5441376), wk =   0.0312500
        k(   23) = (  -0.3535534   0.3535534   1.0882752), wk =   0.0156250
        k(   24) = (  -0.5303301   0.1767767  -0.1360344), wk =   0.0312500
        k(   25) = (  -0.5303301   0.1767767  -0.6801720), wk =   0.0312500
        k(   26) = (  -0.5303301   0.1767767   0.9522408), wk =   0.0312500
        k(   27) = (  -0.5303301   0.1767767   0.4081032), wk =   0.0312500
        k(   28) = (   0.0000000   0.7071068   0.2720688), wk =   0.0156250
        k(   29) = (   0.0000000   0.7071068  -0.2720688), wk =   0.0312500
        k(   30) = (   0.0000000   0.7071068   1.3603439), wk =   0.0156250

     Check: negative/imaginary core charge=   -0.000006    0.000000

     Initial potential from superposition of free atoms

     starting charge  295.99426, renormalised to  296.00000
     Number of +U iterations with fixed ns =  0
     Starting occupations:
 --- enter write_ns ---
 LDA+U parameters:
U(  1) =   3.1200   J(  1) =   0.7000   B(  1) =   0.0803
U(  2) =   3.1200   J(  2) =   0.7000   B(  2) =   0.0803
atom    1   Tr[ns(na)] (up, down, total) =   5.00000  0.00000  5.00000
   spin  1
    eigenvalues:
  1.000  1.000  1.000  1.000  1.000
    eigenvectors:
  1.000  0.000  0.000  0.000  0.000
  0.000  1.000  0.000  0.000  0.000
  0.000  0.000  1.000  0.000  0.000
  0.000  0.000  0.000  1.000  0.000
  0.000  0.000  0.000  0.000  1.000
    occupations:
  1.000  0.000  0.000  0.000  0.000
  0.000  1.000  0.000  0.000  0.000
  0.000  0.000  1.000  0.000  0.000
  0.000  0.000  0.000  1.000  0.000
  0.000  0.000  0.000  0.000  1.000
   spin  2
    eigenvalues:
  0.000  0.000  0.000  0.000  0.000
    eigenvectors:
  1.000  0.000  0.000  0.000  0.000
  0.000  1.000  0.000  0.000  0.000
  0.000  0.000  1.000  0.000  0.000
  0.000  0.000  0.000  1.000  0.000
  0.000  0.000  0.000  0.000  1.000
    occupations:
  0.000  0.000  0.000  0.000  0.000
  0.000  0.000  0.000  0.000  0.000
  0.000  0.000  0.000  0.000  0.000
  0.000  0.000  0.000  0.000  0.000
  0.000  0.000  0.000  0.000  0.000
atomic mag. moment =     5.000000
atom    2   Tr[ns(na)] (up, down, total) =   0.00000  5.00000  5.00000
   spin  1
    eigenvalues:
  0.000  0.000  0.000  0.000  0.000
    eigenvectors:
  1.000  0.000  0.000  0.000  0.000
  0.000  1.000  0.000  0.000  0.000
  0.000  0.000  1.000  0.000  0.000
  0.000  0.000  0.000  1.000  0.000
  0.000  0.000  0.000  0.000  1.000
    occupations:
  0.000  0.000  0.000  0.000  0.000
[...]
  0.000  0.000  0.000  0.004  0.996
  0.999  0.001  0.000  0.000  0.000
    occupations:
  1.003 -0.000  0.000 -0.000 -0.000
 -0.000  1.003  0.000 -0.000  0.000
  0.000  0.000  1.003  0.000 -0.000
 -0.000 -0.000  0.000  1.004  0.000
 -0.000  0.000 -0.000  0.000  1.003
   spin  2
    eigenvalues:
  0.040  0.050  0.054  0.056  0.073
    eigenvectors:
  0.011  0.968  0.007  0.013  0.002
  0.000  0.000  0.641  0.359  0.001
  0.000  0.020  0.352  0.628  0.000
  0.989  0.010  0.000  0.000  0.000
  0.000  0.001  0.000  0.001  0.998
    occupations:
  0.050 -0.000  0.001  0.001 -0.001
 -0.000  0.055 -0.001 -0.000  0.000
  0.001 -0.001  0.055  0.000 -0.000
  0.001 -0.000  0.000  0.041  0.000
 -0.001  0.000 -0.000  0.000  0.073
atomic mag. moment =     4.741780
N of occupied +U levels =   42.314321
 --- exit write_ns ---

     total energy              =  -14679.19431492 Ry
     Harris-Foulkes estimate   =  -14669.82424988 Ry
     estimated scf accuracy    <      21.28291465 Ry

     total magnetization       =    10.50 Bohr mag/cell
     absolute magnetization    =    43.57 Bohr mag/cell

     iteration #  2     ecut=    45.00 Ry     beta= 0.10
     Davidson diagonalization with overlap
     ethr =  7.19E-03,  avg # of iterations =  1.0

[...]

     iteration # 11     ecut=    45.00 Ry     beta= 0.10
     Davidson diagonalization with overlap
     c_bands:  1 eigenvalues not converged
     ethr =  1.53E-06,  avg # of iterations =  5.4

[...]

     total energy              =  -14693.94008856 Ry
     Harris-Foulkes estimate   =  -14693.94008479 Ry
     estimated scf accuracy    <       0.00000198 Ry

[...]

     iteration # 20     ecut=    45.00 Ry     beta= 0.10
     Davidson diagonalization with overlap
     ethr =  6.70E-10,  avg # of iterations =  2.3

     Magnetic moment per site:
     atom:    1    charge:   13.5443    magn:    4.2034    constr:    0.0000
     atom:    2    charge:   13.5368    magn:   -4.2448    constr:    0.0000
     atom:    3    charge:   13.5381    magn:   -4.2399    constr:    0.0000
     atom:    4    charge:   13.5449    magn:    4.1879    constr:    0.0000
     atom:    5    charge:   13.5410    magn:    4.2299    constr:    0.0000
     atom:    6    charge:   13.5425    magn:    4.2051    constr:    0.0000
     atom:    7    charge:   13.5381    magn:   -4.2399    constr:    0.0000
     atom:    8    charge:   13.5449    magn:    4.1879    constr:    0.0000
     atom:    9    charge:    9.0907    magn:   -0.0010    constr:    0.0000
     atom:   10    charge:    9.0892    magn:    0.0145    constr:    0.0000
     atom:   11    charge:    9.0915    magn:   -0.0072    constr:    0.0000
     atom:   12    charge:    9.0921    magn:    0.0493    constr:    0.0000
     atom:   13    charge:    9.0908    magn:   -0.0178    constr:    0.0000
     atom:   14    charge:    9.0899    magn:    0.0174    constr:    0.0000
     atom:   15    charge:    9.0906    magn:    0.0219    constr:    0.0000
     atom:   16    charge:    9.0901    magn:   -0.0274    constr:    0.0000
     atom:   17    charge:    9.0899    magn:    0.0174    constr:    0.0000
     atom:   18    charge:    9.0908    magn:   -0.0178    constr:    0.0000
     atom:   19    charge:    9.0915    magn:   -0.0072    constr:    0.0000
     atom:   20    charge:    9.0921    magn:    0.0493    constr:    0.0000
     atom:   21    charge:    9.0907    magn:   -0.0010    constr:    0.0000
     atom:   22    charge:    9.0892    magn:    0.0145    constr:    0.0000
     atom:   23    charge:    9.0901    magn:   -0.0274    constr:    0.0000
     atom:   24    charge:    9.0906    magn:    0.0219    constr:    0.0000

     End of self-consistent calculation
 --- enter write_ns ---
 LDA+U parameters:
U(  1) =   3.1200   J(  1) =   0.7000   B(  1) =   0.0803
U(  2) =   3.1200   J(  2) =   0.7000   B(  2) =   0.0803
atom    1   Tr[ns(na)] (up, down, total) =   4.96593  0.76409  5.73002
   spin  1
    eigenvalues:
  0.984  0.991  0.993  0.997  1.001
    eigenvectors:
  0.004  0.000  0.022  0.974  0.000
  0.001  0.500  0.487  0.012  0.000
  0.001  0.500  0.487  0.012  0.000
  0.000  0.000  0.000  0.000  1.000
  0.994  0.000  0.003  0.003  0.000
    occupations:
  0.997  0.000  0.000 -0.000  0.001
  0.000  0.992  0.001 -0.000 -0.000
  0.000  0.001  0.992  0.000 -0.000
 -0.000 -0.000  0.000  1.001 -0.000
  0.001 -0.000 -0.000 -0.000  0.984
   spin  2
    eigenvalues:
  0.069  0.142  0.144  0.153  0.256
    eigenvectors:
  0.000  0.000  0.946  0.022  0.032
  0.001  0.499  0.010  0.488  0.003
  0.001  0.499  0.010  0.488  0.003
  0.998  0.002  0.000  0.000  0.000
  0.000  0.000  0.035  0.002  0.962
    occupations:
  0.148 -0.000 -0.000 -0.000 -0.020
 -0.000  0.148  0.006 -0.002  0.006
 -0.000  0.006  0.148  0.002  0.006
 -0.000 -0.002  0.002  0.069 -0.000
 -0.020  0.006  0.006 -0.000  0.252
atomic mag. moment =     4.201834
atom    2   Tr[ns(na)] (up, down, total) =   0.73143  4.96935  5.70078
   spin  1
    eigenvalues:
  0.070  0.126  0.141  0.155  0.240
    eigenvectors:
  0.000  0.990  0.000  0.009  0.001
  0.000  0.004  0.500  0.478  0.018
  0.000  0.004  0.500  0.478  0.018
  0.999  0.000  0.001  0.000  0.000
  0.000  0.002  0.000  0.035  0.963
    occupations:
  0.126 -0.002 -0.002 -0.000  0.003
 -0.002  0.149  0.008 -0.002  0.011
 -0.002  0.008  0.149  0.002  0.011
 -0.000 -0.002  0.002  0.070 -0.000
  0.003  0.011  0.011 -0.000  0.237
   spin  2
    eigenvalues:
  0.985  0.992  0.993  0.998  1.002
    eigenvectors:
  0.001  0.000  0.049  0.950  0.000
  0.002  0.500  0.474  0.024  0.000
  0.002  0.500  0.474  0.024  0.000
  0.000  0.000  0.000  0.000  1.000
  0.996  0.000  0.002  0.001  0.000
    occupations:
  0.997 -0.001 -0.001 -0.000  0.000
 -0.001  0.993  0.001 -0.000 -0.000
 -0.001  0.001  0.993  0.000 -0.000
 -0.000 -0.000  0.000  1.002 -0.000
  0.000 -0.000 -0.000 -0.000  0.985
atomic mag. moment =    -4.237926
atom    3   Tr[ns(na)] (up, down, total) =   0.73526  4.96832  5.70358
   spin  1
    eigenvalues:
  0.071  0.126  0.145  0.151  0.244
    eigenvectors:
  0.000  0.779  0.039  0.155  0.027
  0.000  0.087  0.877  0.019  0.017
  0.001  0.123  0.059  0.817  0.000
  0.999  0.000  0.000  0.000  0.000
  0.000  0.011  0.024  0.009  0.956
    occupations:
  0.133  0.007  0.008  0.000 -0.017
  0.007  0.145 -0.001 -0.001 -0.012
  0.008 -0.001  0.147 -0.002  0.000
  0.000 -0.001 -0.002  0.071 -0.001
 -0.017 -0.012  0.000 -0.001  0.239
   spin  2
    eigenvalues:
  0.985  0.992  0.994  0.997  1.001
    eigenvectors:
  0.007  0.000  0.006  0.984  0.003
  0.000  0.581  0.416  0.003  0.000
  0.001  0.418  0.577  0.004  0.000
  0.000  0.000  0.000  0.003  0.997
  0.992  0.000  0.001  0.006  0.000
    occupations:
  0.997  0.000  0.000  0.000  0.001
  0.000  0.993  0.001 -0.000 -0.000
  0.000  0.001  0.993 -0.000 -0.000
  0.000 -0.000 -0.000  1.001  0.000
  0.001 -0.000 -0.000  0.000  0.985
atomic mag. moment =    -4.233060
atom    4   Tr[ns(na)] (up, down, total) =   4.96420  0.77454  5.73874
   spin  1
    eigenvalues:
  0.983  0.990  0.993  0.997  1.001
    eigenvectors:
  0.001  0.002  0.016  0.975  0.006
  0.005  0.501  0.491  0.004  0.000
  0.000  0.493  0.491  0.015  0.000
  0.000  0.000  0.000  0.006  0.994
  0.994  0.003  0.002  0.001  0.000
    occupations:
  0.997  0.000  0.001  0.000  0.001
  0.000  0.992  0.002 -0.000 -0.001
  0.001  0.002  0.992 -0.000  0.000
  0.000 -0.000 -0.000  1.001 -0.000
  0.001 -0.001  0.000 -0.000  0.983
   spin  2
    eigenvalues:
  0.067  0.138  0.145  0.159  0.265
    eigenvectors:
  0.000  0.018  0.852  0.126  0.003
  0.000  0.573  0.109  0.317  0.001
  0.000  0.407  0.037  0.556  0.000
  1.000  0.000  0.000  0.000  0.000
  0.000  0.002  0.002  0.001  0.995
    occupations:
  0.147  0.002  0.004  0.001 -0.007
  0.002  0.146  0.009 -0.001 -0.004
  0.004  0.009  0.150 -0.001  0.003
  0.001 -0.001 -0.001  0.068  0.000
 -0.007 -0.004  0.003  0.000  0.264
atomic mag. moment =     4.189661
atom    5   Tr[ns(na)] (up, down, total) =   4.96927  0.74122  5.71050
   spin  1
    eigenvalues:
  0.984  0.992  0.994  0.997  1.002
    eigenvectors:
  0.000  0.083  0.000  0.917  0.000
  0.001  0.457  0.500  0.041  0.000
  0.001  0.457  0.500  0.041  0.000
  0.000  0.000  0.000  0.000  1.000
  0.997  0.002  0.000  0.000  0.000
    occupations:
  0.996 -0.001 -0.001 -0.000  0.000
 -0.001  0.993 -0.001 -0.000 -0.000
 -0.001 -0.001  0.993  0.000 -0.000
 -0.000 -0.000  0.000  1.002 -0.000
  0.000 -0.000 -0.000 -0.000  0.984
   spin  2
    eigenvalues:
  0.069  0.123  0.141  0.152  0.256
    eigenvectors:
  0.000  0.986  0.000  0.013  0.000
  0.000  0.006  0.500  0.488  0.006
  0.000  0.006  0.500  0.488  0.006
  1.000  0.000  0.000  0.000  0.000
  0.000  0.001  0.000  0.011  0.988
    occupations:
  0.124 -0.002 -0.002 -0.000  0.003
 -0.002  0.147  0.006 -0.001  0.008
 -0.002  0.006  0.147  0.001  0.008
 -0.000 -0.001  0.001  0.069 -0.000
  0.003  0.008  0.008 -0.000  0.255
atomic mag. moment =     4.228052
atom    6   Tr[ns(na)] (up, down, total) =   4.96615  0.76179  5.72793
   spin  1
    eigenvalues:
  0.983  0.992  0.993  0.997  1.001
    eigenvectors:
  0.001  0.000  0.000  0.999  0.000
  0.003  0.500  0.497  0.000  0.000
  0.003  0.500  0.497  0.000  0.000
  0.000  0.000  0.000  0.000  1.000
  0.993  0.000  0.006  0.001  0.000
    occupations:
  0.997  0.000  0.000 -0.000  0.000
  0.000  0.993  0.000  0.000 -0.001
  0.000  0.000  0.993 -0.000 -0.001
 -0.000  0.000 -0.000  1.001 -0.000
  0.000 -0.001 -0.001 -0.000  0.983
   spin  2
    eigenvalues:
  0.070  0.141  0.145  0.155  0.251
    eigenvectors:
  0.000  0.000  0.630  0.355  0.014
  0.000  0.500  0.183  0.316  0.001
  0.000  0.500  0.183  0.316  0.001
  1.000  0.000  0.000  0.000  0.000
  0.000  0.000  0.004  0.013  0.983
    occupations:
  0.150  0.004  0.004 -0.000 -0.012
  0.004  0.146  0.005  0.000 -0.003
  0.004  0.005  0.146 -0.000 -0.003
 -0.000  0.000 -0.000  0.070 -0.000
 -0.012 -0.003 -0.003 -0.000  0.249
atomic mag. moment =     4.204362
atom    7   Tr[ns(na)] (up, down, total) =   0.73526  4.96832  5.70358
   spin  1
    eigenvalues:
  0.071  0.126  0.145  0.151  0.244
    eigenvectors:
  0.000  0.779  0.039  0.155  0.027
  0.001  0.123  0.059  0.817  0.000
  0.000  0.087  0.877  0.019  0.017
  0.999  0.000  0.000  0.000  0.000
  0.000  0.011  0.024  0.009  0.956
    occupations:
  0.133  0.008  0.007 -0.000 -0.017
  0.008  0.147 -0.001  0.002  0.000
  0.007 -0.001  0.145  0.001 -0.012
 -0.000  0.002  0.001  0.071  0.001
 -0.017  0.000 -0.012  0.001  0.239
   spin  2
    eigenvalues:
  0.985  0.992  0.994  0.997  1.001
    eigenvectors:
  0.007  0.000  0.006  0.984  0.003
  0.001  0.418  0.577  0.004  0.000
  0.000  0.581  0.416  0.003  0.000
  0.000  0.000  0.000  0.003  0.997
  0.992  0.000  0.001  0.006  0.000
    occupations:
  0.997  0.000  0.000 -0.000  0.001
  0.000  0.993  0.001  0.000 -0.000
  0.000  0.001  0.993  0.000 -0.000
 -0.000  0.000  0.000  1.001 -0.000
  0.001 -0.000 -0.000 -0.000  0.985
atomic mag. moment =    -4.233060
atom    8   Tr[ns(na)] (up, down, total) =   4.96420  0.77454  5.73874
   spin  1
    eigenvalues:
  0.983  0.990  0.993  0.997  1.001
    eigenvectors:
  0.001  0.002  0.016  0.975  0.006
  0.000  0.493  0.491  0.015  0.000
  0.005  0.501  0.491  0.004  0.000
  0.000  0.000  0.000  0.006  0.994
  0.994  0.003  0.002  0.001  0.000
    occupations:
  0.997  0.001  0.000 -0.000  0.001
  0.001  0.992  0.002  0.000  0.000
  0.000  0.002  0.992  0.000 -0.001
 -0.000  0.000  0.000  1.001  0.000
  0.001  0.000 -0.001  0.000  0.983
   spin  2
    eigenvalues:
  0.067  0.138  0.145  0.159  0.265
    eigenvectors:
  0.000  0.018  0.852  0.126  0.003
  0.000  0.407  0.037  0.556  0.000
  0.000  0.573  0.109  0.317  0.001
  1.000  0.000  0.000  0.000  0.000
  0.000  0.002  0.002  0.001  0.995
    occupations:
  0.147  0.004  0.002 -0.001 -0.007
  0.004  0.150  0.009  0.001  0.003
  0.002  0.009  0.146  0.001 -0.004
 -0.001  0.001  0.001  0.068 -0.000
 -0.007  0.003 -0.004 -0.000  0.264
atomic mag. moment =     4.189661
N of occupied +U levels =   45.753863
 --- exit write_ns ---

 ------ SPIN UP ------------

          k = 0.0000 0.0000 0.0000 ( 13629 PWs)   bands (ev):

   -66.4130 -66.3800 -66.3539 -66.3460 -66.3456 -61.8900 -61.8785 -61.8781
   -35.1967 -35.1370 -35.1345 -35.1339 -35.1327 -35.1197 -35.1166 -35.1152
   -35.1151 -35.0957 -35.0934 -35.0903 -35.0538 -35.0514 -35.0492 -30.7192
   -30.7171 -30.7143 -30.7077 -30.7074 -30.7055 -30.7055 -30.6994 -30.6991
     5.9475   7.5479   7.6239   8.0802   8.1432   8.3510   8.4375   8.4481
     8.7005   8.7041   9.0361   9.1602   9.3408   9.3896   9.4209   9.4301
     9.4638   9.4756   9.5610   9.5621   9.5932   9.5995   9.6063   9.6347
     9.6398   9.6918   9.7101   9.7416   9.8494   9.8556   9.9402   9.9414
     9.9494   9.9760  10.0222  10.0569  10.0736  10.0747  10.1505  10.1577
    10.2331  10.2589  10.2630  10.2671  10.3030  10.4153  10.4306  10.4392
    10.4527  10.4797  10.4959  10.5157  10.5165  10.6390  10.6476  10.6853
    10.7352  10.7752  10.8329  10.9382  11.0066  11.0413  11.0865  11.0935
    11.1143  11.1881  11.3241  11.3308  11.3400  11.4221  11.4953  11.6244
    11.6687  11.7896  11.8019  11.8158  11.8165  11.8277  11.8383  11.9142
    11.9399  11.9684  12.0262  12.0814  12.0934  12.1845  12.2600  12.2665
    12.2815  12.3500  12.3517  12.4038  12.4287  12.4607  12.4803  12.5069
    12.5161  12.5810  12.5884  12.6706  12.6866  12.6926  12.7006  12.7184
    12.7353  12.9427  12.9461  13.1241  13.1648  13.2180  13.2551  13.2645
    13.2659  13.3276  14.1194  15.0385  15.0427  15.0991  15.1537  15.5896
    15.9602  16.1306  16.8285  16.8543  16.9579  17.0140  17.0783  17.0938
    17.2157  17.4012  17.5759  17.5952  17.7059  17.8262  17.9334  18.1638
    18.2812  18.5417  19.1085  19.1276  19.3621  19.3734  19.4422  19.4496
    19.5589  19.5636

[...]

          k =-0.1768-0.1768-0.1360 ( 13673 PWs)   bands (ev):

[...]

 ------ SPIN DOWN ----------

[...]

          k =-0.5303 0.1768 0.4081 ( 13670 PWs)   bands (ev):

[...]

          k = 0.0000 0.7071 1.3603 ( 13696 PWs)   bands (ev):

   -66.4810 -66.4613 -66.4610 -61.8355 -61.8256 -61.8051 -61.8048 -61.8019
   -35.2484 -35.2281 -35.2280 -35.2161 -35.2105 -35.2097 -35.1990 -35.1684
   -35.1684 -30.6701 -30.6621 -30.6598 -30.6588 -30.6522 -30.6449 -30.6402
   -30.6392 -30.6369 -30.6314 -30.6312 -30.6296 -30.6268 -30.6242 -30.6186
     7.8539   7.9149   8.0064   8.0105   8.5970   8.6504   8.6973   8.7304
     8.8197   8.8381   8.8804   8.9544   9.0567   9.0734   9.1091   9.1584
     9.1809   9.1873   9.2661   9.2896   9.4521   9.4862   9.5247   9.5595
     9.5987   9.6110   9.6303   9.6779   9.7151   9.7241   9.7816   9.7878
     9.8538   9.9391   9.9958  10.0684  10.0995  10.1804  10.1849  10.2195
    10.2196  10.2298  10.2932  10.2999  10.5174  10.5276  10.7762  10.8248
    10.9153  10.9464  11.0032  11.0299  11.0546  11.0844  11.1223  11.1562
    11.2116  11.2245  11.2627  11.2963  11.4149  11.4489  11.4939  11.5231
    11.5326  11.6675  11.6764  11.7336  11.8235  11.8945  11.9134  11.9488
    11.9511  11.9950  12.0164  12.0250  12.0281  12.0610  12.0736  12.1227
    12.1309  12.2232  12.2339  12.2529  12.2862  12.3059  12.3312  12.3644
    12.4039  12.4529  12.5220  12.6177  12.6248  12.6439  12.6561  12.6577
    12.6916  12.7139  12.8236  13.0852  13.1595  13.2076  13.2509  13.3684
    13.4060  13.6067  13.7626  14.1451  14.2847  14.5690  14.6483  15.4876
    15.5660  15.8886  16.1504  16.3088  16.4189  16.6132  16.7405  17.0602
    17.2490  17.2733  17.2839  17.3088  17.4235  17.4413  17.4420  17.4777
    17.5202  17.5641  17.6055  17.6148  17.6768  17.7289  17.8679  18.0886
    18.2313  18.2908  18.3326  18.3978  18.4270  18.4450  18.5871  18.6258
    20.5740  20.7210

     the Fermi energy is    15.5680 ev

!    total energy              =  -14693.94010249 Ry
     Harris-Foulkes estimate   =  -14693.94008828 Ry
     estimated scf accuracy    <       0.00000065 Ry

     total all-electron energy =   -626921.535824 Ry

     The total energy is the sum of the following terms:

     one-electron contribution =    -698.53600212 Ry
     hartree contribution      =     651.65902422 Ry
     xc contribution           =    -738.09714660 Ry
     ewald contribution        =   -2207.56121140 Ry
     Hubbard energy            =       0.46201553 Ry
     one-center paw contrib.   =  -11701.86678211 Ry

     total magnetization       =     8.46 Bohr mag/cell
     absolute magnetization    =    36.77 Bohr mag/cell

     convergence has been achieved in  20 iterations

     Writing output data file mnau2.save/

     General routines

     Parallel routines

     Hubbard U routines

   This run was terminated on:  13: 1:52  26Mar2019

   JOB DONE.