     Program PWSCF v.6.3MaX starts on 26Mar2019 at 13:19: 5

     R & G space division:  proc/nbgrp/npool/nimage =      16
     Waiting for input...
     Reading input from standard input

     Current dimensions of program PWSCF are:
     Max number of different atomic species (ntypx) = 10
     Max number of k-points (npk) =  40000
     Max angular momentum in pseudopotentials (lmaxx) =  3
     Message from routine read_upf::
     Pseudo file ./pseudo/Mn.pbe-spn-kjpaw_psl.0.3.1.UPF has been successfully fixed on the fly.
To avoid this message in the future you can permanently fix
 your pseudo files following instructions given in:
               file Mn.pbe-spn-kjpaw_psl.0.3.1.UPF: wavefunction(s)  3P 3D renormalized
     Message from routine read_upf::
     Pseudo file ./pseudo/Mn.pbe-spn-kjpaw_psl.0.3.1.UPF has been successfully fixed on the fly.
To avoid this message in the future you can permanently fix
 your pseudo files following instructions given in:
               file Mn.pbe-spn-kjpaw_psl.0.3.1.UPF: wavefunction(s)  3P 3D renormalized
     Message from routine read_upf::
     Pseudo file ./pseudo/Au.pbe-dn-kjpaw_psl.0.1.UPF has been successfully fixed on the fly.
To avoid this message in the future you can permanently fix
 your pseudo files following instructions given in:
               file Au.pbe-dn-kjpaw_psl.0.1.UPF: wavefunction(s)  6S 6P 5D renormalized

     Found symmetry operation: I + (  0.5000  0.0000  0.0000)
     This is a supercell, fractional translations are disabled

     bravais-lattice index     =            0
     lattice parameter (alat)  =      18.0125  a.u.
     unit-cell volume          =    2685.0513 (a.u.)^3
     number of atoms/cell      =           24
     number of atomic types    =            3
     number of electrons       =       296.00
     number of Kohn-Sham states=          178
     kinetic-energy cutoff     =      45.0000  Ry
     charge density cutoff     =     400.0000  Ry
     convergence threshold     =      1.0E-06
     mixing beta               =       0.1000
     number of iterations used =            8  plain     mixing
     Exchange-correlation      = SLA PW PBX PBC ( 1  4  3  4 0 0)

     celldm(1)=  18.012490  celldm(2)=   0.000000  celldm(3)=   0.000000
     celldm(4)=   0.000000  celldm(5)=   0.000000  celldm(6)=   0.000000

     crystal axes: (cart. coord. in units of alat)
               a(1) = (   0.707107  -0.707107   0.000000 )
               a(2) = (  -0.707107  -0.707107   0.000000 )
               a(3) = (   0.176777   0.176777  -0.459443 )

     reciprocal axes: (cart. coord. in units 2 pi/alat)
               b(1) = (  0.707107 -0.707107  0.000000 )
               b(2) = ( -0.707107 -0.707107 -0.544138 )
               b(3) = (  0.000000  0.000000 -2.176550 )

     PseudoPot. # 1 for Mn read from file:
     ./pseudo/Mn.pbe-spn-kjpaw_psl.0.3.1.UPF
     MD5 check sum: 7eef95dd2aae66803482eea66ebeebf1
     Pseudo is Projector augmented-wave + core cor, Zval = 15.0
     Generated using "atomic" code by A. Dal Corso v.5.0.99 svn rev. 10869
     Shape of augmentation charge: PSQ
     Using radial grid of 1187 points,  6 beta functions with:
                l(1) =   0
                l(2) =   0
                l(3) =   1
                l(4) =   1
                l(5) =   2
                l(6) =   2
     Q(r) pseudized with 0 coefficients

     PseudoPot. # 2 for Mn read from file:
     ./pseudo/Mn.pbe-spn-kjpaw_psl.0.3.1.UPF
     MD5 check sum: 7eef95dd2aae66803482eea66ebeebf1
     Pseudo is Projector augmented-wave + core cor, Zval = 15.0
     Generated using "atomic" code by A. Dal Corso v.5.0.99 svn rev. 10869
     Shape of augmentation charge: PSQ
     Using radial grid of 1187 points,  6 beta functions with:
                l(1) =   0
                l(2) =   0
                l(3) =   1
                l(4) =   1
                l(5) =   2
                l(6) =   2
     Q(r) pseudized with 0 coefficients

     PseudoPot. # 3 for Au read from file:
     ./pseudo/Au.pbe-dn-kjpaw_psl.0.1.UPF
     MD5 check sum: 5c9b92683623e7ae2ab3f8e525febab6
     Pseudo is Projector augmented-wave + core cor, Zval = 11.0
     Generated using "atomic" code by A. Dal Corso v.5.0.2 svn rev. 9415
     Shape of augmentation charge: PSQ
     Using radial grid of 1279 points,  6 beta functions with:
                l(1) =   0
                l(2) =   0
                l(3) =   1
                l(4) =   1
                l(5) =   2
                l(6) =   2
     Q(r) pseudized with 0 coefficients

     atomic species   valence    mass     pseudopotential
        Mn1           15.00    54.93800     Mn( 1.00)
        Mn2           15.00    54.93800     Mn( 1.00)
        Au            11.00   196.96600     Au( 1.00)

     Starting magnetic structure
     atomic species   magnetization
        Mn1          1.000
        Mn2         -1.000
        Au           0.000

     Full LDA+U calculation (l_max = 2) with parameters (eV):
     U(  1) =   3.1200   J(  1) =   0.7000   B(  1) =   0.0803
     U(  2) =   3.1200   J(  2) =   0.7000   B(  2) =   0.0803

      4 Sym. Ops., with inversion, found

   Cartesian axes

     site n.     atom                  positions (alat units)
         1           Mn1 tau(   1) = (   0.3535534  -0.3535534   0.0000000  )
         2           Mn1 tau(   2) = (   0.0000000   0.0000000   0.0000000  )
         3           Mn2 tau(   3) = (   0.0000000  -0.3535534   0.0000000  )
         4           Mn2 tau(   4) = (   0.3535534  -0.7071068   0.0000000  )
         5           Mn2 tau(   5) = (  -0.3535534  -0.3535534   0.0000000  )
         6           Mn2 tau(   6) = (   0.0000000  -0.7071068   0.0000000  )
         7           Mn2 tau(   7) = (  -0.3535534  -0.7071068   0.0000000  )
         8           Mn2 tau(   8) = (   0.0000000  -1.0606602   0.0000000  )
         9           Au  tau(   9) = (  -0.1767767  -0.1767767  -0.1470216  )
        10           Au  tau(  10) = (   0.1767767  -0.5303301  -0.1470216  )
        11           Au  tau(  11) = (  -0.1767767  -0.5303301  -0.1470216  )
        12           Au  tau(  12) = (   0.1767767  -0.8838835  -0.1470216  )
        13           Au  tau(  13) = (  -0.5303301  -0.5303301  -0.1470216  )
        14           Au  tau(  14) = (  -0.1767767  -0.8838835  -0.1470216  )
        15           Au  tau(  15) = (   0.5303301  -0.5303301  -0.1470216  )
        16           Au  tau(  16) = (   0.1767767  -0.1767767  -0.1470216  )
        17           Au  tau(  17) = (   0.3535534  -0.3535534  -0.3124210  )
        18           Au  tau(  18) = (   0.0000000   0.0000000  -0.3124210  )
        19           Au  tau(  19) = (   0.0000000  -0.3535534  -0.3124210  )
        20           Au  tau(  20) = (   0.3535534  -0.7071068  -0.3124210  )
        21           Au  tau(  21) = (  -0.3535534  -0.3535534  -0.3124210  )
        22           Au  tau(  22) = (  -0.0000000  -0.7071068  -0.3124210  )
        23           Au  tau(  23) = (  -0.3535534  -0.7071068  -0.3124210  )
        24           Au  tau(  24) = (   0.0000000  -1.0606602  -0.3124210  )

     number of k points=    30 (tetrahedron method)
                       cart. coord. in units 2pi/alat
        k(    1) = (   0.0000000   0.0000000   0.0000000), wk =   0.0156250
        k(    2) = (   0.0000000   0.0000000  -0.5441376), wk =   0.0312500
        k(    3) = (   0.0000000   0.0000000   1.0882752), wk =   0.0156250
        k(    4) = (  -0.1767767  -0.1767767  -0.1360344), wk =   0.0312500
        k(    5) = (  -0.1767767  -0.1767767  -0.6801720), wk =   0.0312500
        k(    6) = (  -0.1767767  -0.1767767   0.9522408), wk =   0.0312500
        k(    7) = (  -0.1767767  -0.1767767   0.4081032), wk =   0.0312500
        k(    8) = (   0.3535534   0.3535534   0.2720688), wk =   0.0156250
        k(    9) = (   0.3535534   0.3535534  -0.2720688), wk =   0.0312500
        k(   10) = (   0.3535534   0.3535534   1.3603439), wk =   0.0156250
        k(   11) = (   0.1767767  -0.1767767   0.0000000), wk =   0.0312500
        k(   12) = (   0.1767767  -0.1767767  -0.5441376), wk =   0.0625000
        k(   13) = (   0.1767767  -0.1767767   1.0882752), wk =   0.0312500
        k(   14) = (   0.0000000  -0.3535534  -0.1360344), wk =   0.0625000
        k(   15) = (   0.0000000  -0.3535534  -0.6801720), wk =   0.0625000
        k(   16) = (   0.0000000  -0.3535534   0.9522408), wk =   0.0625000
        k(   17) = (   0.0000000  -0.3535534   0.4081032), wk =   0.0625000
        k(   18) = (   0.5303301   0.1767767   0.2720688), wk =   0.0312500
        k(   19) = (   0.5303301   0.1767767  -0.2720688), wk =   0.0625000
        k(   20) = (   0.5303301   0.1767767   1.3603439), wk =   0.0312500
        k(   21) = (  -0.3535534   0.3535534   0.0000000), wk =   0.0156250
        k(   22) = (  -0.3535534   0.3535534  -0.5441376), wk =   0.0312500
        k(   23) = (  -0.3535534   0.3535534   1.0882752), wk =   0.0156250
        k(   24) = (  -0.5303301   0.1767767  -0.1360344), wk =   0.0312500
        k(   25) = (  -0.5303301   0.1767767  -0.6801720), wk =   0.0312500
        k(   26) = (  -0.5303301   0.1767767   0.9522408), wk =   0.0312500
        k(   27) = (  -0.5303301   0.1767767   0.4081032), wk =   0.0312500
        k(   28) = (   0.0000000   0.7071068   0.2720688), wk =   0.0156250
        k(   29) = (   0.0000000   0.7071068  -0.2720688), wk =   0.0312500
        k(   30) = (   0.0000000   0.7071068   1.3603439), wk =   0.0156250

     Check: negative/imaginary core charge=   -0.000006    0.000000

     Initial potential from superposition of free atoms

     starting charge  295.99426, renormalised to  296.00000
     Number of +U iterations with fixed ns =  0
     Starting occupations:
 --- enter write_ns ---
 LDA+U parameters:
U(  1) =   3.1200   J(  1) =   0.7000   B(  1) =   0.0803
U(  2) =   3.1200   J(  2) =   0.7000   B(  2) =   0.0803
atom    1   Tr[ns(na)] (up, down, total) =   5.00000  0.00000  5.00000
   spin  1
    eigenvalues:
  1.000  1.000  1.000  1.000  1.000
    eigenvectors:
  1.000  0.000  0.000  0.000  0.000
  0.000  1.000  0.000  0.000  0.000
  0.000  0.000  1.000  0.000  0.000
  0.000  0.000  0.000  1.000  0.000
  0.000  0.000  0.000  0.000  1.000
    occupations:
  1.000  0.000  0.000  0.000  0.000
  0.000  1.000  0.000  0.000  0.000
  0.000  0.000  1.000  0.000  0.000
  0.000  0.000  0.000  1.000  0.000
  0.000  0.000  0.000  0.000  1.000
   spin  2
    eigenvalues:
  0.000  0.000  0.000  0.000  0.000
    eigenvectors:
  1.000  0.000  0.000  0.000  0.000
  0.000  1.000  0.000  0.000  0.000
  0.000  0.000  1.000  0.000  0.000
  0.000  0.000  0.000  1.000  0.000
  0.000  0.000  0.000  0.000  1.000
    occupations:
  0.000  0.000  0.000  0.000  0.000
  0.000  0.000  0.000  0.000  0.000
  0.000  0.000  0.000  0.000  0.000
  0.000  0.000  0.000  0.000  0.000
  0.000  0.000  0.000  0.000  0.000
atomic mag. moment =     5.000000
atom    2   Tr[ns(na)] (up, down, total) =   5.00000  0.00000  5.00000
   spin  1
    eigenvalues:
  1.000  1.000  1.000  1.000  1.000
    eigenvectors:
  1.000  0.000  0.000  0.000  0.000
  0.000  1.000  0.000  0.000  0.000
  0.000  0.000  1.000  0.000  0.000
[...]
   spin  1
    eigenvalues:
  0.041  0.051  0.054  0.055  0.073
    eigenvectors:
  0.000  0.980  0.000  0.020  0.000
  0.000  0.011  0.475  0.514  0.001
  0.000  0.010  0.525  0.465  0.000
  1.000  0.000  0.000  0.000  0.000
  0.000  0.000  0.000  0.001  0.999
    occupations:
  0.051  0.000  0.000 -0.000 -0.000
  0.000  0.054  0.000 -0.000  0.000
  0.000  0.000  0.054  0.000  0.000
 -0.000 -0.000  0.000  0.041 -0.000
 -0.000  0.000  0.000 -0.000  0.073
   spin  2
    eigenvalues:
  1.003  1.003  1.003  1.003  1.003
    eigenvectors:
  0.000  0.000  0.000  1.000  0.000
  0.000  0.659  0.341  0.000  0.000
  0.000  0.341  0.659  0.000  0.000
  0.000  0.000  0.000  0.000  1.000
  1.000  0.000  0.000  0.000  0.000
    occupations:
  1.003 -0.000  0.000  0.000 -0.000
 -0.000  1.003  0.000  0.000 -0.000
  0.000  0.000  1.003  0.000 -0.000
  0.000  0.000  0.000  1.003 -0.000
 -0.000 -0.000 -0.000 -0.000  1.003
atomic mag. moment =    -4.740577
N of occupied +U levels =   42.314285
 --- exit write_ns ---

     total energy              =  -14679.20984893 Ry
     Harris-Foulkes estimate   =  -14669.81436720 Ry
     estimated scf accuracy    <      21.27035366 Ry

     total magnetization       =   -21.00 Bohr mag/cell
     absolute magnetization    =    43.53 Bohr mag/cell

     iteration #  2     ecut=    45.00 Ry     beta= 0.10
     Davidson diagonalization with overlap
     ethr =  7.19E-03,  avg # of iterations =  1.0

[...]

     total energy              =  -14693.94816994 Ry
     Harris-Foulkes estimate   =  -14693.94816827 Ry
     estimated scf accuracy    <       0.00000110 Ry

[...]

     iteration # 23     ecut=    45.00 Ry     beta= 0.10
     Davidson diagonalization with overlap
     ethr =  3.49E-10,  avg # of iterations =  1.9

     Magnetic moment per site:
     atom:    1    charge:   13.5273    magn:    4.2984    constr:    0.0000
     atom:    2    charge:   13.5265    magn:    4.3021    constr:    0.0000
     atom:    3    charge:   13.5433    magn:   -4.2049    constr:    0.0000
     atom:    4    charge:   13.5433    magn:   -4.2049    constr:    0.0000
     atom:    5    charge:   13.5483    magn:   -4.1715    constr:    0.0000
     atom:    6    charge:   13.5479    magn:   -4.1732    constr:    0.0000
     atom:    7    charge:   13.5433    magn:   -4.2049    constr:    0.0000
     atom:    8    charge:   13.5433    magn:   -4.2049    constr:    0.0000
     atom:    9    charge:    9.0903    magn:   -0.0181    constr:    0.0000
     atom:   10    charge:    9.0901    magn:   -0.0186    constr:    0.0000
     atom:   11    charge:    9.0887    magn:   -0.0330    constr:    0.0000
     atom:   12    charge:    9.0887    magn:   -0.0330    constr:    0.0000
     atom:   13    charge:    9.0916    magn:   -0.0068    constr:    0.0000
     atom:   14    charge:    9.0914    magn:   -0.0074    constr:    0.0000
     atom:   15    charge:    9.0924    magn:    0.0100    constr:    0.0000
     atom:   16    charge:    9.0924    magn:    0.0100    constr:    0.0000
     atom:   17    charge:    9.0914    magn:   -0.0074    constr:    0.0000
     atom:   18    charge:    9.0916    magn:   -0.0068    constr:    0.0000
     atom:   19    charge:    9.0887    magn:   -0.0330    constr:    0.0000
     atom:   20    charge:    9.0887    magn:   -0.0330    constr:    0.0000
     atom:   21    charge:    9.0903    magn:   -0.0181    constr:    0.0000
     atom:   22    charge:    9.0901    magn:   -0.0186    constr:    0.0000
     atom:   23    charge:    9.0924    magn:    0.0100    constr:    0.0000
     atom:   24    charge:    9.0924    magn:    0.0100    constr:    0.0000

     End of self-consistent calculation
 --- enter write_ns ---
 LDA+U parameters:
U(  1) =   3.1200   J(  1) =   0.7000   B(  1) =   0.0803
U(  2) =   3.1200   J(  2) =   0.7000   B(  2) =   0.0803
atom    1   Tr[ns(na)] (up, down, total) =   4.97422  0.68843  5.66265
   spin  1
    eigenvalues:
  0.986  0.993  0.995  0.998  1.002
    eigenvectors:
  0.047  0.096  0.000  0.857  0.000
  0.007  0.436  0.500  0.058  0.000
  0.007  0.436  0.500  0.058  0.000
  0.000  0.000  0.000  0.000  1.000
  0.940  0.032  0.000  0.028  0.000
    occupations:
  0.997 -0.001 -0.001 -0.000 -0.002
 -0.001  0.994 -0.000 -0.000 -0.000
 -0.001 -0.000  0.994  0.000 -0.000
 -0.000 -0.000  0.000  1.002 -0.000
 -0.002 -0.000 -0.000 -0.000  0.987
   spin  2
    eigenvalues:
  0.073  0.124  0.136  0.143  0.213
    eigenvectors:
  0.000  0.975  0.000  0.013  0.012
  0.003  0.010  0.497  0.457  0.034
  0.003  0.010  0.497  0.457  0.034
  0.994  0.000  0.006  0.000  0.000
  0.000  0.005  0.000  0.073  0.921
    occupations:
  0.125  0.003  0.003 -0.000  0.009
  0.003  0.142  0.006 -0.003  0.012
  0.003  0.006  0.142  0.003  0.012
 -0.000 -0.003  0.003  0.073 -0.000
  0.009  0.012  0.012 -0.000  0.207
atomic mag. moment =     4.285793
atom    2   Tr[ns(na)] (up, down, total) =   4.97464  0.68537  5.66000
   spin  1
    eigenvalues:
  0.986  0.993  0.995  0.998  1.002
    eigenvectors:
  0.046  0.096  0.000  0.858  0.000
  0.006  0.437  0.500  0.057  0.000
  0.006  0.437  0.500  0.057  0.000
  0.000  0.000  0.000  0.000  1.000
  0.942  0.030  0.000  0.028  0.000
    occupations:
  0.997 -0.001 -0.001 -0.000 -0.002
 -0.001  0.994 -0.000 -0.000 -0.000
 -0.001 -0.000  0.994  0.000 -0.000
 -0.000 -0.000  0.000  1.002 -0.000
 -0.002 -0.000 -0.000 -0.000  0.987
   spin  2
    eigenvalues:
  0.073  0.122  0.138  0.142  0.210
    eigenvectors:
  0.000  0.970  0.000  0.018  0.012
  0.003  0.013  0.497  0.453  0.034
  0.003  0.013  0.497  0.453  0.034
  0.995  0.000  0.005  0.000  0.000
  0.000  0.005  0.000  0.076  0.919
    occupations:
  0.123  0.004  0.004 -0.000  0.009
  0.004  0.142  0.005 -0.003  0.012
  0.004  0.005  0.142  0.003  0.012
 -0.000 -0.003  0.003  0.074 -0.000
  0.009  0.012  0.012 -0.000  0.204
atomic mag. moment =     4.289270
atom    3   Tr[ns(na)] (up, down, total) =   0.76198  4.96628  5.72826
   spin  1
    eigenvalues:
  0.069  0.131  0.152  0.157  0.254
    eigenvectors:
  0.000  0.792  0.200  0.001  0.008
  0.000  0.104  0.351  0.543  0.002
  0.000  0.102  0.439  0.457  0.002
  1.000  0.000  0.000  0.000  0.000
  0.000  0.002  0.010  0.000  0.988
    occupations:
  0.136  0.007  0.006  0.000 -0.010
  0.007  0.152 -0.004  0.000 -0.004
  0.006 -0.004  0.152 -0.000 -0.005
  0.000  0.000 -0.000  0.069 -0.000
 -0.010 -0.004 -0.005 -0.000  0.253
   spin  2
    eigenvalues:
  0.983  0.993  0.993  0.996  1.001
    eigenvectors:
  0.002  0.002  0.000  0.996  0.000
  0.000  0.535  0.464  0.001  0.000
  0.000  0.463  0.536  0.001  0.000
  0.000  0.000  0.000  0.000  1.000
  0.998  0.000  0.000  0.002  0.000
    occupations:
  0.996  0.000  0.000  0.000 -0.001
  0.000  0.993 -0.000 -0.000  0.000
  0.000 -0.000  0.993  0.000  0.000
  0.000 -0.000  0.000  1.001  0.000
 -0.001  0.000  0.000  0.000  0.983
atomic mag. moment =    -4.204296
atom    4   Tr[ns(na)] (up, down, total) =   0.76198  4.96628  5.72826
   spin  1
    eigenvalues:
  0.069  0.131  0.152  0.157  0.254
    eigenvectors:
  0.000  0.792  0.200  0.001  0.008
  0.000  0.102  0.439  0.457  0.002
  0.000  0.104  0.351  0.543  0.002
  1.000  0.000  0.000  0.000  0.000
  0.000  0.002  0.010  0.000  0.988
    occupations:
  0.136  0.006  0.007 -0.000 -0.010
  0.006  0.152 -0.004  0.000 -0.005
  0.007 -0.004  0.152 -0.000 -0.004
 -0.000  0.000 -0.000  0.069  0.000
 -0.010 -0.005 -0.004  0.000  0.253
   spin  2
    eigenvalues:
  0.983  0.993  0.993  0.996  1.001
    eigenvectors:
  0.002  0.002  0.000  0.996  0.000
  0.000  0.463  0.536  0.001  0.000
  0.000  0.535  0.464  0.001  0.000
  0.000  0.000  0.000  0.000  1.000
  0.998  0.000  0.000  0.002  0.000
    occupations:
  0.996  0.000  0.000 -0.000 -0.001
  0.000  0.993 -0.000 -0.000  0.000
  0.000 -0.000  0.993  0.000  0.000
 -0.000 -0.000  0.000  1.001 -0.000
 -0.001  0.000  0.000 -0.000  0.983
atomic mag. moment =    -4.204296
atom    5   Tr[ns(na)] (up, down, total) =   0.79026  4.96390  5.75416
   spin  1
    eigenvalues:
  0.066  0.132  0.159  0.159  0.274
    eigenvectors:
  0.000  0.956  0.000  0.043  0.001
  0.000  0.021  0.500  0.477  0.002
  0.000  0.021  0.500  0.477  0.002
  1.000  0.000  0.000  0.000  0.000
  0.000  0.002  0.000  0.003  0.995
    occupations:
  0.133 -0.004 -0.004 -0.000  0.005
 -0.004  0.159 -0.000  0.001  0.005
 -0.004 -0.000  0.159 -0.001  0.005
 -0.000  0.001 -0.001  0.066 -0.000
  0.005  0.005  0.005 -0.000  0.273
   spin  2
    eigenvalues:
  0.982  0.992  0.992  0.996  1.002
    eigenvectors:
  0.003  0.019  0.000  0.979  0.000
  0.000  0.491  0.500  0.009  0.000
  0.000  0.491  0.500  0.009  0.000
  0.000  0.000  0.000  0.000  1.000
  0.997  0.000  0.000  0.003  0.000
    occupations:
  0.996 -0.000 -0.000 -0.000  0.001
 -0.000  0.992 -0.000 -0.000 -0.000
 -0.000 -0.000  0.992  0.000 -0.000
 -0.000 -0.000  0.000  1.002 -0.000
  0.001 -0.000 -0.000 -0.000  0.982
atomic mag. moment =    -4.173645
atom    6   Tr[ns(na)] (up, down, total) =   0.78900  4.96398  5.75297
   spin  1
    eigenvalues:
  0.066  0.132  0.158  0.160  0.273
    eigenvectors:
  0.000  0.954  0.045  0.000  0.001
  0.000  0.022  0.476  0.500  0.002
  0.000  0.022  0.476  0.500  0.002
  1.000  0.000  0.000  0.000  0.000
  0.000  0.002  0.003  0.000  0.995
    occupations:
  0.133 -0.004 -0.004 -0.000  0.005
 -0.004  0.159 -0.001  0.001  0.006
 -0.004 -0.001  0.159 -0.001  0.006
 -0.000  0.001 -0.001  0.066 -0.000
  0.005  0.006  0.006 -0.000  0.272
   spin  2
    eigenvalues:
  0.982  0.992  0.992  0.996  1.002
    eigenvectors:
  0.003  0.019  0.000  0.978  0.000
  0.000  0.490  0.500  0.010  0.000
  0.000  0.490  0.500  0.010  0.000
  0.000  0.000  0.000  0.000  1.000
  0.997  0.000  0.000  0.003  0.000
    occupations:
  0.996 -0.000 -0.000 -0.000  0.001
 -0.000  0.992 -0.000 -0.000 -0.000
 -0.000 -0.000  0.992  0.000 -0.000
 -0.000 -0.000  0.000  1.002 -0.000
  0.001 -0.000 -0.000 -0.000  0.982
atomic mag. moment =    -4.174979
atom    7   Tr[ns(na)] (up, down, total) =   0.76198  4.96628  5.72826
   spin  1
    eigenvalues:
  0.069  0.131  0.152  0.157  0.254
    eigenvectors:
  0.000  0.792  0.200  0.001  0.008
  0.000  0.102  0.439  0.457  0.002
  0.000  0.104  0.351  0.543  0.002
  1.000  0.000  0.000  0.000  0.000
  0.000  0.002  0.010  0.000  0.988
    occupations:
  0.136  0.006  0.007 -0.000 -0.010
  0.006  0.152 -0.004  0.000 -0.005
  0.007 -0.004  0.152 -0.000 -0.004
 -0.000  0.000 -0.000  0.069  0.000
 -0.010 -0.005 -0.004  0.000  0.253
   spin  2
    eigenvalues:
  0.983  0.993  0.993  0.996  1.001
    eigenvectors:
  0.002  0.002  0.000  0.996  0.000
  0.000  0.463  0.536  0.001  0.000
  0.000  0.535  0.464  0.001  0.000
  0.000  0.000  0.000  0.000  1.000
  0.998  0.000  0.000  0.002  0.000
    occupations:
  0.996  0.000  0.000 -0.000 -0.001
  0.000  0.993 -0.000 -0.000  0.000
  0.000 -0.000  0.993  0.000  0.000
 -0.000 -0.000  0.000  1.001 -0.000
 -0.001  0.000  0.000 -0.000  0.983
atomic mag. moment =    -4.204296
atom    8   Tr[ns(na)] (up, down, total) =   0.76198  4.96628  5.72826
   spin  1
    eigenvalues:
  0.069  0.131  0.152  0.157  0.254
    eigenvectors:
  0.000  0.792  0.200  0.001  0.008
  0.000  0.104  0.351  0.543  0.002
  0.000  0.102  0.439  0.457  0.002
  1.000  0.000  0.000  0.000  0.000
  0.000  0.002  0.010  0.000  0.988
    occupations:
  0.136  0.007  0.006  0.000 -0.010
  0.007  0.152 -0.004  0.000 -0.004
  0.006 -0.004  0.152 -0.000 -0.005
  0.000  0.000 -0.000  0.069 -0.000
 -0.010 -0.004 -0.005 -0.000  0.253
   spin  2
    eigenvalues:
  0.983  0.993  0.993  0.996  1.001
    eigenvectors:
  0.002  0.002  0.000  0.996  0.000
  0.000  0.535  0.464  0.001  0.000
  0.000  0.463  0.536  0.001  0.000
  0.000  0.000  0.000  0.000  1.000
  0.998  0.000  0.000  0.002  0.000
    occupations:
  0.996  0.000  0.000  0.000 -0.001
  0.000  0.993 -0.000 -0.000  0.000
  0.000 -0.000  0.993  0.000  0.000
  0.000 -0.000  0.000  1.001  0.000
 -0.001  0.000  0.000  0.000  0.983
atomic mag. moment =    -4.204296
N of occupied +U levels =   45.742816
 --- exit write_ns ---

 ------ SPIN UP ------------

          k = 0.0000 0.0000 0.0000 ( 13629 PWs)   bands (ev):

   -66.6092 -66.5982 -61.8274 -61.8274 -61.8273 -61.8273 -61.7676 -61.7668
   -35.3652 -35.3549 -35.3432 -35.3354 -35.3327 -35.3240 -30.6625 -30.6619
   -30.6619 -30.6616 -30.6529 -30.6525 -30.6523 -30.6520 -30.6492 -30.6490
   -30.6489 -30.6488 -30.6029 -30.6020 -30.5960 -30.5956 -30.5874 -30.5873
     6.0077   7.5931   7.7952   8.1358   8.2836   8.5091   8.6696   8.6825
     8.7091   8.7109   9.1045   9.3249   9.4281   9.4710   9.5289   9.5582
     9.5886   9.6131   9.6289   9.6582   9.6724   9.7509   9.8297   9.8320
     9.8554   9.8860   9.9329   9.9400   9.9487   9.9703  10.0572  10.0973
    10.1288  10.1630  10.2283  10.2682  10.2751  10.3063  10.3361  10.3472
    10.3623  10.3688  10.3798  10.3837  10.3899  10.4062  10.5151  10.5489
    10.5765  10.6508  10.7022  10.7386  10.8241  10.8594  11.0582  11.0854
    11.0997  11.1191  11.1432  11.1529  11.2436  11.3370  11.3373  11.3575
    11.4587  11.5024  11.5134  11.5663  11.6919  11.7741  11.7795  11.7795
    11.8251  11.8298  11.8992  12.0702  12.0917  12.1747  12.2695  12.2720
    12.3214  12.3404  12.3674  12.3723  12.3768  12.5154  12.5260  12.6749
    12.6851  12.6894  12.7069  12.7160  12.7321  12.7957  12.8052  12.9759
    13.1595  13.2872  13.2947  14.0736  14.1928  14.2211  15.0823  15.1829
    15.2059  15.5693  15.6258  15.8935  16.4145  16.5794  16.5845  16.6276
    16.7673  16.7801  16.8648  17.0788  17.1452  17.1619  17.1917  17.3127
    17.3616  17.3859  17.4087  17.4634  17.5604  17.5821  17.5839  17.5864
    17.6361  17.7003  17.8653  18.1046  18.1228  18.1439  18.1651  18.1866
    18.8864  19.2113  19.5353  19.5364  19.5517  19.6019  19.7718  19.7802
    19.7813  20.0507

[...]

          k =-0.1768-0.1768-0.1360 ( 13673 PWs)   bands (ev):

[...]

 ------ SPIN DOWN ----------

[...]

          k =-0.5303 0.1768 0.4081 ( 13670 PWs)   bands (ev):

[...]

          k = 0.0000 0.7071 1.3603 ( 13696 PWs)   bands (ev):

   -66.3819 -66.3819 -66.3813 -66.3813 -66.2981 -66.2969 -61.9672 -61.9603
   -35.1454 -35.1454 -35.1453 -35.1453 -35.1216 -35.1216 -35.1215 -35.1215
   -35.1023 -35.1023 -35.1022 -35.1022 -35.0759 -35.0754 -35.0296 -35.0285
   -35.0129 -35.0115 -30.8030 -30.7959 -30.7881 -30.7824 -30.7818 -30.7754
     7.8231   7.8234   7.8837   7.8840   8.5825   8.5828   8.6172   8.6173
     8.6760   8.6761   8.7168   8.7169   8.9928   8.9931   9.0071   9.0072
     9.0793   9.0793   9.0900   9.0904   9.2288   9.2291   9.2498   9.2499
     9.3893   9.3897   9.4607   9.4608   9.5377   9.5378   9.5476   9.5478
     9.6933   9.6935   9.8566   9.8567   9.9215   9.9216  10.0520  10.0521
    10.0721  10.0721  10.1937  10.1939  10.4713  10.4713  10.4954  10.4956
    10.6908  10.6911  10.7105  10.7106  10.8659  10.8660  10.9491  10.9492
    11.0936  11.0940  11.0973  11.0974  11.3084  11.3086  11.3569  11.3572
    11.4807  11.4810  11.5173  11.5174  11.5724  11.5726  11.7212  11.7214
    11.8555  11.8556  11.8808  11.8811  11.9992  11.9993  12.0129  12.0130
    12.0251  12.0252  12.0504  12.0505  12.0744  12.0747  12.0926  12.0927
    12.0950  12.0951  12.2194  12.2194  12.2404  12.2409  12.2781  12.2781
    12.3285  12.3288  12.3980  12.3982  12.4472  12.4475  12.4747  12.4748
    12.5792  12.5793  12.6671  12.6676  12.7750  12.7753  12.8239  12.8240
    13.0308  13.0309  13.2722  13.2724  13.4372  13.4375  13.6715  13.6715
    13.8666  13.8667  14.8140  14.8157  15.1163  15.1169  16.2854  16.2861
    16.5464  16.5492  16.5768  16.5779  16.6840  16.6842  17.3434  17.3474
    17.6527  17.6537  17.9131  17.9142  17.9285  17.9361  18.1779  18.1854
    20.4744  20.4748

     the Fermi energy is    15.5493 ev

!    total energy              =  -14693.94817733 Ry
     Harris-Foulkes estimate   =  -14693.94816945 Ry
     estimated scf accuracy    <       0.00000032 Ry

     total all-electron energy =   -626921.543899 Ry

     The total energy is the sum of the following terms:

     one-electron contribution =    -698.48642970 Ry
     hartree contribution      =     651.60876929 Ry
     xc contribution           =    -738.10092210 Ry
     ewald contribution        =   -2207.56121140 Ry
     Hubbard energy            =       0.46057418 Ry
     one-center paw contrib.   =  -11701.86895761 Ry

     total magnetization       =   -16.90 Bohr mag/cell
     absolute magnetization    =    36.81 Bohr mag/cell

     convergence has been achieved in  23 iterations

     Writing output data file mnau2.save/

     General routines

     Parallel routines

     Hubbard U routines

   This run was terminated on:  13:38:59  26Mar2019

   JOB DONE.