     Program PWSCF v.6.3MaX starts on 26Mar2019 at 12:19:51

     R & G space division:  proc/nbgrp/npool/nimage =      16
     Waiting for input...
     Reading input from standard input

     Current dimensions of program PWSCF are:
     Max number of different atomic species (ntypx) = 10
     Max number of k-points (npk) =  40000
     Max angular momentum in pseudopotentials (lmaxx) =  3
     Message from routine read_upf::
     Pseudo file ./pseudo/Mn.pbe-spn-kjpaw_psl.0.3.1.UPF has been successfully fixed on the fly.
To avoid this message in the future you can permanently fix
 your pseudo files following instructions given in:
               file Mn.pbe-spn-kjpaw_psl.0.3.1.UPF: wavefunction(s)  3P 3D renormalized
     Message from routine read_upf::
     Pseudo file ./pseudo/Mn.pbe-spn-kjpaw_psl.0.3.1.UPF has been successfully fixed on the fly.
To avoid this message in the future you can permanently fix
 your pseudo files following instructions given in:
               file Mn.pbe-spn-kjpaw_psl.0.3.1.UPF: wavefunction(s)  3P 3D renormalized
     Message from routine read_upf::
     Pseudo file ./pseudo/Au.pbe-dn-kjpaw_psl.0.1.UPF has been successfully fixed on the fly.
To avoid this message in the future you can permanently fix
 your pseudo files following instructions given in:
               file Au.pbe-dn-kjpaw_psl.0.1.UPF: wavefunction(s)  6S 6P 5D renormalized

     Found symmetry operation: I + (  0.2500  0.2500  0.0000)
     This is a supercell, fractional translations are disabled

     bravais-lattice index     =            0
     lattice parameter (alat)  =      18.0125  a.u.
     unit-cell volume          =    2685.0513 (a.u.)^3
     number of atoms/cell      =           24
     number of atomic types    =            3
     number of electrons       =       296.00
     number of Kohn-Sham states=          178
     kinetic-energy cutoff     =      45.0000  Ry
     charge density cutoff     =     400.0000  Ry
     convergence threshold     =      1.0E-06
     mixing beta               =       0.1000
     number of iterations used =            8  plain     mixing
     Exchange-correlation      = SLA PW PBX PBC ( 1  4  3  4 0 0)

     celldm(1)=  18.012490  celldm(2)=   0.000000  celldm(3)=   0.000000
     celldm(4)=   0.000000  celldm(5)=   0.000000  celldm(6)=   0.000000

     crystal axes: (cart. coord. in units of alat)
               a(1) = (   0.707107  -0.707107   0.000000 )
               a(2) = (  -0.707107  -0.707107   0.000000 )
               a(3) = (   0.176777   0.176777  -0.459443 )

     reciprocal axes: (cart. coord. in units 2 pi/alat)
               b(1) = (  0.707107 -0.707107  0.000000 )
               b(2) = ( -0.707107 -0.707107 -0.544138 )
               b(3) = (  0.000000  0.000000 -2.176550 )

     PseudoPot. # 1 for Mn read from file:
     ./pseudo/Mn.pbe-spn-kjpaw_psl.0.3.1.UPF
     MD5 check sum: 7eef95dd2aae66803482eea66ebeebf1
     Pseudo is Projector augmented-wave + core cor, Zval = 15.0
     Generated using "atomic" code by A. Dal Corso v.5.0.99 svn rev. 10869
     Shape of augmentation charge: PSQ
     Using radial grid of 1187 points,  6 beta functions with:
                l(1) =   0
                l(2) =   0
                l(3) =   1
                l(4) =   1
                l(5) =   2
                l(6) =   2
     Q(r) pseudized with 0 coefficients

     PseudoPot. # 2 for Mn read from file:
     ./pseudo/Mn.pbe-spn-kjpaw_psl.0.3.1.UPF
     MD5 check sum: 7eef95dd2aae66803482eea66ebeebf1
     Pseudo is Projector augmented-wave + core cor, Zval = 15.0
     Generated using "atomic" code by A. Dal Corso v.5.0.99 svn rev. 10869
     Shape of augmentation charge: PSQ
     Using radial grid of 1187 points,  6 beta functions with:
                l(1) =   0
                l(2) =   0
                l(3) =   1
                l(4) =   1
                l(5) =   2
                l(6) =   2
     Q(r) pseudized with 0 coefficients

     PseudoPot. # 3 for Au read from file:
     ./pseudo/Au.pbe-dn-kjpaw_psl.0.1.UPF
     MD5 check sum: 5c9b92683623e7ae2ab3f8e525febab6
     Pseudo is Projector augmented-wave + core cor, Zval = 11.0
     Generated using "atomic" code by A. Dal Corso v.5.0.2 svn rev. 9415
     Shape of augmentation charge: PSQ
     Using radial grid of 1279 points,  6 beta functions with:
                l(1) =   0
                l(2) =   0
                l(3) =   1
                l(4) =   1
                l(5) =   2
                l(6) =   2
     Q(r) pseudized with 0 coefficients

     atomic species   valence    mass     pseudopotential
        Mn1           15.00    54.93800     Mn( 1.00)
        Mn2           15.00    54.93800     Mn( 1.00)
        Au            11.00   196.96600     Au( 1.00)

     Starting magnetic structure
     atomic species   magnetization
        Mn1          1.000
        Mn2         -1.000
        Au           0.000

     Full LDA+U calculation (l_max = 2) with parameters (eV):
     U(  1) =   3.1200   J(  1) =   0.7000   B(  1) =   0.0803
     U(  2) =   3.1200   J(  2) =   0.7000   B(  2) =   0.0803

      2 Sym. Ops., with inversion, found

   Cartesian axes

     site n.     atom                  positions (alat units)
         1           Mn1 tau(   1) = (   0.3535534  -0.3535534   0.0000000  )
         2           Mn2 tau(   2) = (   0.0000000   0.0000000   0.0000000  )
         3           Mn2 tau(   3) = (   0.0000000  -0.3535534   0.0000000  )
         4           Mn1 tau(   4) = (   0.3535534  -0.7071068   0.0000000  )
         5           Mn1 tau(   5) = (  -0.3535534  -0.3535534   0.0000000  )
         6           Mn2 tau(   6) = (   0.0000000  -0.7071068   0.0000000  )
         7           Mn1 tau(   7) = (  -0.3535534  -0.7071068   0.0000000  )
         8           Mn2 tau(   8) = (   0.0000000  -1.0606602   0.0000000  )
         9           Au  tau(   9) = (  -0.1767767  -0.1767767  -0.1470216  )
        10           Au  tau(  10) = (   0.1767767  -0.5303301  -0.1470216  )
        11           Au  tau(  11) = (  -0.1767767  -0.5303301  -0.1470216  )
        12           Au  tau(  12) = (   0.1767767  -0.8838835  -0.1470216  )
        13           Au  tau(  13) = (  -0.5303301  -0.5303301  -0.1470216  )
        14           Au  tau(  14) = (  -0.1767767  -0.8838835  -0.1470216  )
        15           Au  tau(  15) = (   0.5303301  -0.5303301  -0.1470216  )
        16           Au  tau(  16) = (   0.1767767  -0.1767767  -0.1470216  )
        17           Au  tau(  17) = (   0.3535534  -0.3535534  -0.3124210  )
        18           Au  tau(  18) = (   0.0000000   0.0000000  -0.3124210  )
        19           Au  tau(  19) = (   0.0000000  -0.3535534  -0.3124210  )
        20           Au  tau(  20) = (   0.3535534  -0.7071068  -0.3124210  )
        21           Au  tau(  21) = (  -0.3535534  -0.3535534  -0.3124210  )
        22           Au  tau(  22) = (  -0.0000000  -0.7071068  -0.3124210  )
        23           Au  tau(  23) = (  -0.3535534  -0.7071068  -0.3124210  )
        24           Au  tau(  24) = (   0.0000000  -1.0606602  -0.3124210  )

     number of k points=    36 (tetrahedron method)
                       cart. coord. in units 2pi/alat
        k(    1) = (   0.0000000   0.0000000   0.0000000), wk =   0.0156250
        k(    2) = (   0.0000000   0.0000000  -0.5441376), wk =   0.0312500
        k(    3) = (   0.0000000   0.0000000   1.0882752), wk =   0.0156250
        k(    4) = (  -0.1767767  -0.1767767  -0.1360344), wk =   0.0312500
        k(    5) = (  -0.1767767  -0.1767767  -0.6801720), wk =   0.0312500
        k(    6) = (  -0.1767767  -0.1767767   0.9522408), wk =   0.0312500
        k(    7) = (  -0.1767767  -0.1767767   0.4081032), wk =   0.0312500
        k(    8) = (   0.3535534   0.3535534   0.2720688), wk =   0.0156250
        k(    9) = (   0.3535534   0.3535534  -0.2720688), wk =   0.0312500
        k(   10) = (   0.3535534   0.3535534   1.3603439), wk =   0.0156250
        k(   11) = (   0.1767767  -0.1767767   0.0000000), wk =   0.0312500
        k(   12) = (   0.1767767  -0.1767767  -0.5441376), wk =   0.0312500
        k(   13) = (   0.1767767  -0.1767767   1.0882752), wk =   0.0312500
        k(   14) = (   0.0000000  -0.3535534  -0.1360344), wk =   0.0312500
        k(   15) = (   0.0000000  -0.3535534  -0.6801720), wk =   0.0312500
        k(   16) = (   0.0000000  -0.3535534   0.9522408), wk =   0.0312500
        k(   17) = (   0.0000000  -0.3535534   0.4081032), wk =   0.0312500
        k(   18) = (   0.5303301   0.1767767   0.2720688), wk =   0.0312500
        k(   19) = (   0.5303301   0.1767767  -0.2720688), wk =   0.0312500
        k(   20) = (   0.5303301   0.1767767   1.3603439), wk =   0.0312500
        k(   21) = (  -0.3535534   0.3535534   0.0000000), wk =   0.0156250
        k(   22) = (  -0.3535534   0.3535534  -0.5441376), wk =   0.0312500
        k(   23) = (  -0.3535534   0.3535534   1.0882752), wk =   0.0156250
        k(   24) = (  -0.5303301   0.1767767  -0.1360344), wk =   0.0312500
        k(   25) = (  -0.5303301   0.1767767  -0.6801720), wk =   0.0312500
        k(   26) = (  -0.5303301   0.1767767   0.9522408), wk =   0.0312500
        k(   27) = (  -0.5303301   0.1767767   0.4081032), wk =   0.0312500
        k(   28) = (   0.0000000   0.7071068   0.2720688), wk =   0.0156250
        k(   29) = (   0.0000000   0.7071068  -0.2720688), wk =   0.0312500
        k(   30) = (   0.0000000   0.7071068   1.3603439), wk =   0.0156250
        k(   31) = (   0.1767767  -0.1767767   0.5441376), wk =   0.0312500
        k(   32) = (   0.3535534   0.0000000   0.1360344), wk =   0.0312500
        k(   33) = (   0.3535534   0.0000000   0.6801720), wk =   0.0312500
        k(   34) = (   0.3535534   0.0000000  -0.9522408), wk =   0.0312500
        k(   35) = (   0.3535534   0.0000000  -0.4081032), wk =   0.0312500
        k(   36) = (  -0.1767767  -0.5303301   0.2720688), wk =   0.0312500

     Check: negative/imaginary core charge=   -0.000006    0.000000

     Initial potential from superposition of free atoms

     starting charge  295.99426, renormalised to  296.00000
     Number of +U iterations with fixed ns =  0
     Starting occupations:
 --- enter write_ns ---
 LDA+U parameters:
U(  1) =   3.1200   J(  1) =   0.7000   B(  1) =   0.0803
U(  2) =   3.1200   J(  2) =   0.7000   B(  2) =   0.0803
atom    1   Tr[ns(na)] (up, down, total) =   5.00000  0.00000  5.00000
   spin  1
    eigenvalues:
  1.000  1.000  1.000  1.000  1.000
    eigenvectors:
  1.000  0.000  0.000  0.000  0.000
  0.000  1.000  0.000  0.000  0.000
  0.000  0.000  1.000  0.000  0.000
  0.000  0.000  0.000  1.000  0.000
  0.000  0.000  0.000  0.000  1.000
    occupations:
  1.000  0.000  0.000  0.000  0.000
  0.000  1.000  0.000  0.000  0.000
  0.000  0.000  1.000  0.000  0.000
  0.000  0.000  0.000  1.000  0.000
  0.000  0.000  0.000  0.000  1.000
   spin  2
    eigenvalues:
  0.000  0.000  0.000  0.000  0.000
    eigenvectors:
  1.000  0.000  0.000  0.000  0.000
  0.000  1.000  0.000  0.000  0.000
  0.000  0.000  1.000  0.000  0.000
  0.000  0.000  0.000  1.000  0.000
  0.000  0.000  0.000  0.000  1.000
    occupations:
  0.000  0.000  0.000  0.000  0.000
[...]
   spin  1
    eigenvalues:
  0.041  0.052  0.055  0.056  0.071
    eigenvectors:
  0.027  0.878  0.010  0.085  0.000
  0.000  0.093  0.020  0.886  0.001
  0.000  0.003  0.959  0.026  0.012
  0.973  0.026  0.000  0.001  0.000
  0.000  0.001  0.011  0.002  0.986
    occupations:
  0.052  0.001 -0.000 -0.002 -0.000
  0.001  0.056  0.000  0.000  0.001
 -0.000  0.000  0.055  0.000  0.002
 -0.002  0.000  0.000  0.041 -0.000
 -0.000  0.001  0.002 -0.000  0.071
   spin  2
    eigenvalues:
  1.003  1.003  1.003  1.003  1.004
    eigenvectors:
  0.000  0.001  0.000  0.970  0.029
  0.000  0.978  0.021  0.001  0.000
  0.003  0.021  0.976  0.000  0.000
  0.000  0.000  0.000  0.029  0.970
  0.997  0.000  0.002  0.000  0.000
    occupations:
  1.003 -0.000  0.000  0.000  0.000
 -0.000  1.003  0.000  0.000 -0.000
  0.000  0.000  1.003  0.000  0.000
  0.000  0.000  0.000  1.004 -0.000
  0.000 -0.000  0.000 -0.000  1.003
atomic mag. moment =    -4.739128
N of occupied +U levels =   42.322337
 --- exit write_ns ---

     total energy              =  -14679.21262621 Ry
     Harris-Foulkes estimate   =  -14669.84629485 Ry
     estimated scf accuracy    <      21.28746334 Ry

     total magnetization       =     0.00 Bohr mag/cell
     absolute magnetization    =    43.48 Bohr mag/cell

     iteration #  2     ecut=    45.00 Ry     beta= 0.10
     Davidson diagonalization with overlap
     ethr =  7.19E-03,  avg # of iterations =  1.0

[...]

     total energy              =  -14693.92772526 Ry
     Harris-Foulkes estimate   =  -14693.92772229 Ry
     estimated scf accuracy    <       0.00000138 Ry

[...]

     iteration # 21     ecut=    45.00 Ry     beta= 0.10
     Davidson diagonalization with overlap
     ethr =  4.65E-10,  avg # of iterations =  3.2

     Magnetic moment per site:
     atom:    1    charge:   13.5373    magn:    4.2427    constr:    0.0000
     atom:    2    charge:   13.5379    magn:   -4.2426    constr:    0.0000
     atom:    3    charge:   13.5375    magn:   -4.2426    constr:    0.0000
     atom:    4    charge:   13.5380    magn:    4.2424    constr:    0.0000
     atom:    5    charge:   13.5378    magn:    4.2424    constr:    0.0000
     atom:    6    charge:   13.5381    magn:   -4.2422    constr:    0.0000
     atom:    7    charge:   13.5380    magn:    4.2424    constr:    0.0000
     atom:    8    charge:   13.5375    magn:   -4.2426    constr:    0.0000
     atom:    9    charge:    9.0930    magn:    0.0068    constr:    0.0000
     atom:   10    charge:    9.0931    magn:   -0.0069    constr:    0.0000
     atom:   11    charge:    9.0930    magn:    0.0070    constr:    0.0000
     atom:   12    charge:    9.0928    magn:   -0.0069    constr:    0.0000
     atom:   13    charge:    9.0930    magn:   -0.0070    constr:    0.0000
     atom:   14    charge:    9.0929    magn:    0.0069    constr:    0.0000
     atom:   15    charge:    9.0929    magn:    0.0071    constr:    0.0000
     atom:   16    charge:    9.0928    magn:   -0.0070    constr:    0.0000
     atom:   17    charge:    9.0929    magn:    0.0069    constr:    0.0000
     atom:   18    charge:    9.0930    magn:   -0.0070    constr:    0.0000
     atom:   19    charge:    9.0928    magn:   -0.0069    constr:    0.0000
     atom:   20    charge:    9.0930    magn:    0.0070    constr:    0.0000
     atom:   21    charge:    9.0930    magn:    0.0068    constr:    0.0000
     atom:   22    charge:    9.0931    magn:   -0.0069    constr:    0.0000
     atom:   23    charge:    9.0929    magn:    0.0071    constr:    0.0000
     atom:   24    charge:    9.0928    magn:   -0.0070    constr:    0.0000

     End of self-consistent calculation
 --- enter write_ns ---
 LDA+U parameters:
U(  1) =   3.1200   J(  1) =   0.7000   B(  1) =   0.0803
U(  2) =   3.1200   J(  2) =   0.7000   B(  2) =   0.0803
atom    1   Tr[ns(na)] (up, down, total) =   4.96971  0.72971  5.69942
   spin  1
    eigenvalues:
  0.986  0.992  0.993  0.997  1.002
    eigenvectors:
  0.000  0.022  0.008  0.954  0.016
  0.001  0.886  0.083  0.025  0.005
  0.000  0.089  0.909  0.002  0.000
  0.000  0.002  0.000  0.019  0.979
  0.999  0.001  0.000  0.000  0.000
    occupations:
  0.997 -0.001 -0.000  0.001  0.000
 -0.001  0.993  0.000 -0.001 -0.000
 -0.000  0.000  0.993  0.000  0.000
  0.001 -0.001  0.000  1.002  0.000
  0.000 -0.000  0.000  0.000  0.986
   spin  2
    eigenvalues:
  0.069  0.119  0.141  0.147  0.254
    eigenvectors:
  0.000  0.996  0.000  0.002  0.001
  0.001  0.000  0.989  0.009  0.001
  0.000  0.003  0.007  0.932  0.058
  0.999  0.000  0.001  0.000  0.000
  0.000  0.001  0.002  0.057  0.940
    occupations:
  0.119 -0.000 -0.002 -0.001 -0.004
 -0.000  0.141  0.000 -0.002  0.003
 -0.002  0.000  0.153  0.000  0.025
 -0.001 -0.002  0.000  0.069 -0.000
 -0.004  0.003  0.025 -0.000  0.247
atomic mag. moment =     4.240003
atom    2   Tr[ns(na)] (up, down, total) =   0.73028  4.96980  5.70008
   spin  1
    eigenvalues:
  0.069  0.119  0.141  0.147  0.254
    eigenvectors:
  0.000  0.997  0.000  0.002  0.001
  0.001  0.000  0.989  0.009  0.001
  0.000  0.002  0.008  0.932  0.058
  0.999  0.000  0.001  0.000  0.000
  0.000  0.001  0.003  0.057  0.940
    occupations:
  0.120 -0.000 -0.002 -0.001 -0.004
 -0.000  0.141  0.000 -0.002  0.003
 -0.002  0.000  0.153  0.000  0.025
 -0.001 -0.002  0.000  0.069 -0.000
 -0.004  0.003  0.025 -0.000  0.248
   spin  2
    eigenvalues:
  0.986  0.992  0.993  0.997  1.002
    eigenvectors:
  0.000  0.021  0.008  0.955  0.017
  0.001  0.873  0.097  0.024  0.005
  0.000  0.103  0.895  0.001  0.000
  0.000  0.002  0.000  0.019  0.979
  0.999  0.001  0.000  0.000  0.000
    occupations:
  0.997 -0.001 -0.000  0.001  0.000
 -0.001  0.993  0.000 -0.001 -0.000
 -0.000  0.000  0.993  0.000  0.000
  0.001 -0.001  0.000  1.002  0.000
  0.000 -0.000  0.000  0.000  0.986
atomic mag. moment =    -4.239521
atom    3   Tr[ns(na)] (up, down, total) =   0.72987  4.96964  5.69951
   spin  1
    eigenvalues:
  0.069  0.119  0.141  0.147  0.254
    eigenvectors:
  0.000  0.997  0.000  0.001  0.001
  0.001  0.000  0.981  0.018  0.001
  0.000  0.002  0.015  0.924  0.059
  0.999  0.000  0.001  0.000  0.000
  0.000  0.001  0.004  0.057  0.939
    occupations:
  0.119 -0.000 -0.002 -0.001 -0.005
 -0.000  0.141  0.000 -0.002  0.003
 -0.002  0.000  0.153  0.000  0.025
 -0.001 -0.002  0.000  0.069 -0.000
 -0.005  0.003  0.025 -0.000  0.247
   spin  2
    eigenvalues:
  0.986  0.992  0.993  0.997  1.002
    eigenvectors:
  0.000  0.023  0.006  0.955  0.016
  0.000  0.910  0.061  0.025  0.005
  0.000  0.065  0.933  0.002  0.000
  0.000  0.002  0.000  0.018  0.979
  0.999  0.000  0.000  0.000  0.000
    occupations:
  0.997 -0.001 -0.000  0.001  0.000
 -0.001  0.993  0.000 -0.001 -0.000
 -0.000  0.000  0.993  0.000  0.000
  0.001 -0.001  0.000  1.002  0.000
  0.000 -0.000  0.000  0.000  0.986
atomic mag. moment =    -4.239774
atom    4   Tr[ns(na)] (up, down, total) =   4.96970  0.73036  5.70006
   spin  1
    eigenvalues:
  0.986  0.992  0.993  0.997  1.002
    eigenvectors:
  0.000  0.022  0.006  0.956  0.016
  0.000  0.901  0.070  0.024  0.005
  0.000  0.075  0.924  0.001  0.000
  0.000  0.002  0.000  0.019  0.979
  0.999  0.000  0.000  0.000  0.000
    occupations:
  0.997 -0.001 -0.000  0.001  0.000
 -0.001  0.993  0.000 -0.001 -0.000
 -0.000  0.000  0.993  0.000  0.000
  0.001 -0.001  0.000  1.002  0.000
  0.000 -0.000  0.000  0.000  0.986
   spin  2
    eigenvalues:
  0.069  0.119  0.141  0.147  0.254
    eigenvectors:
  0.000  0.997  0.000  0.001  0.001
  0.001  0.000  0.980  0.018  0.001
  0.000  0.002  0.015  0.924  0.059
  0.999  0.000  0.001  0.000  0.000
  0.000  0.001  0.004  0.057  0.939
    occupations:
  0.119 -0.000 -0.002 -0.001 -0.005
 -0.000  0.141  0.000 -0.002  0.003
 -0.002  0.000  0.153  0.000  0.025
 -0.001 -0.002  0.000  0.069 -0.000
 -0.005  0.003  0.025 -0.000  0.247
atomic mag. moment =     4.239338
atom    5   Tr[ns(na)] (up, down, total) =   4.96967  0.73033  5.70000
   spin  1
    eigenvalues:
  0.986  0.992  0.993  0.997  1.002
    eigenvectors:
  0.000  0.022  0.009  0.952  0.016
  0.001  0.878  0.090  0.027  0.005
  0.000  0.096  0.901  0.002  0.000
  0.000  0.002  0.000  0.019  0.979
  0.999  0.001  0.000  0.000  0.000
    occupations:
  0.997 -0.001 -0.000  0.001  0.000
 -0.001  0.993  0.000 -0.001 -0.000
 -0.000  0.000  0.993  0.000  0.000
  0.001 -0.001  0.000  1.002  0.000
  0.000 -0.000  0.000  0.000  0.986
   spin  2
    eigenvalues:
  0.069  0.119  0.141  0.147  0.254
    eigenvectors:
  0.000  0.997  0.000  0.002  0.001
  0.001  0.000  0.984  0.014  0.001
  0.000  0.002  0.011  0.928  0.058
  0.998  0.000  0.001  0.000  0.000
  0.000  0.001  0.003  0.056  0.940
    occupations:
  0.119 -0.000 -0.002 -0.001 -0.005
 -0.000  0.141  0.000 -0.002  0.003
 -0.002  0.000  0.153  0.000  0.025
 -0.001 -0.002  0.000  0.069 -0.000
 -0.005  0.003  0.025 -0.000  0.248
atomic mag. moment =     4.239340
atom    6   Tr[ns(na)] (up, down, total) =   0.73075  4.96970  5.70045
   spin  1
    eigenvalues:
  0.069  0.119  0.141  0.147  0.254
    eigenvectors:
  0.000  0.997  0.000  0.001  0.001
  0.001  0.000  0.984  0.014  0.001
  0.000  0.002  0.011  0.929  0.058
  0.999  0.000  0.001  0.000  0.000
  0.000  0.001  0.003  0.056  0.940
    occupations:
  0.119 -0.000 -0.002 -0.001 -0.004
 -0.000  0.141  0.000 -0.002  0.003
 -0.002  0.000  0.153  0.000  0.025
 -0.001 -0.002  0.000  0.069 -0.000
 -0.004  0.003  0.025 -0.000  0.248
   spin  2
    eigenvalues:
  0.986  0.992  0.993  0.997  1.002
    eigenvectors:
  0.000  0.022  0.009  0.953  0.016
  0.001  0.873  0.096  0.026  0.004
  0.000  0.103  0.895  0.002  0.000
  0.000  0.002  0.000  0.019  0.979
  0.999  0.001  0.000  0.000  0.000
    occupations:
  0.997 -0.001 -0.000  0.001  0.000
 -0.001  0.993  0.000 -0.001 -0.000
 -0.000  0.000  0.993  0.000  0.000
  0.001 -0.001  0.000  1.002  0.000
  0.000 -0.000  0.000  0.000  0.986
atomic mag. moment =    -4.238950
atom    7   Tr[ns(na)] (up, down, total) =   4.96970  0.73036  5.70006
   spin  1
    eigenvalues:
  0.986  0.992  0.993  0.997  1.002
    eigenvectors:
  0.000  0.022  0.006  0.956  0.016
  0.000  0.901  0.070  0.024  0.005
  0.000  0.075  0.924  0.001  0.000
  0.000  0.002  0.000  0.019  0.979
  0.999  0.000  0.000  0.000  0.000
    occupations:
  0.997 -0.001 -0.000  0.001  0.000
 -0.001  0.993  0.000 -0.001 -0.000
 -0.000  0.000  0.993  0.000  0.000
  0.001 -0.001  0.000  1.002  0.000
  0.000 -0.000  0.000  0.000  0.986
   spin  2
    eigenvalues:
  0.069  0.119  0.141  0.147  0.254
    eigenvectors:
  0.000  0.997  0.000  0.001  0.001
  0.001  0.000  0.980  0.018  0.001
  0.000  0.002  0.015  0.924  0.059
  0.999  0.000  0.001  0.000  0.000
  0.000  0.001  0.004  0.057  0.939
    occupations:
  0.119 -0.000 -0.002 -0.001 -0.005
 -0.000  0.141  0.000 -0.002  0.003
 -0.002  0.000  0.153  0.000  0.025
 -0.001 -0.002  0.000  0.069 -0.000
 -0.005  0.003  0.025 -0.000  0.247
atomic mag. moment =     4.239338
atom    8   Tr[ns(na)] (up, down, total) =   0.72987  4.96964  5.69951
   spin  1
    eigenvalues:
  0.069  0.119  0.141  0.147  0.254
    eigenvectors:
  0.000  0.997  0.000  0.001  0.001
  0.001  0.000  0.981  0.018  0.001
  0.000  0.002  0.015  0.924  0.059
  0.999  0.000  0.001  0.000  0.000
  0.000  0.001  0.004  0.057  0.939
    occupations:
  0.119 -0.000 -0.002 -0.001 -0.005
 -0.000  0.141  0.000 -0.002  0.003
 -0.002  0.000  0.153  0.000  0.025
 -0.001 -0.002  0.000  0.069 -0.000
 -0.005  0.003  0.025 -0.000  0.247
   spin  2
    eigenvalues:
  0.986  0.992  0.993  0.997  1.002
    eigenvectors:
  0.000  0.023  0.006  0.955  0.016
  0.000  0.910  0.061  0.025  0.005
  0.000  0.065  0.933  0.002  0.000
  0.000  0.002  0.000  0.018  0.979
  0.999  0.000  0.000  0.000  0.000
    occupations:
  0.997 -0.001 -0.000  0.001  0.000
 -0.001  0.993  0.000 -0.001 -0.000
 -0.000  0.000  0.993  0.000  0.000
  0.001 -0.001  0.000  1.002  0.000
  0.000 -0.000  0.000  0.000  0.986
atomic mag. moment =    -4.239774
N of occupied +U levels =   45.599092
 --- exit write_ns ---

 ------ SPIN UP ------------

          k = 0.0000 0.0000 0.0000 ( 13629 PWs)   bands (ev):

   -66.4405 -66.4404 -66.4376 -66.4368 -61.8500 -61.8498 -61.8481 -61.8474
   -35.2306 -35.2305 -35.2277 -35.2269 -35.1647 -35.1635 -35.1604 -35.1599
   -35.1515 -35.1490 -35.1464 -35.1424 -30.6852 -30.6850 -30.6833 -30.6828
   -30.6765 -30.6761 -30.6752 -30.6741 -30.6732 -30.6680 -30.6659 -30.6588
     5.9690   7.6216   7.6217   8.1462   8.1465   8.3725   8.5399   8.5500
     8.7094   8.7106   9.1494   9.1500   9.4251   9.4257   9.4449   9.4638
     9.4725   9.4988   9.5693   9.6154   9.6230   9.6493   9.6582   9.6591
     9.6664   9.6668   9.7072   9.7081   9.9437   9.9437   9.9541   9.9554
     9.9909   9.9911  10.0388  10.0960  10.0960  10.1562  10.2491  10.2675
    10.2762  10.2766  10.3265  10.3828  10.3829  10.3857  10.4996  10.5003
    10.5160  10.5161  10.6067  10.6074  10.6930  10.8110  10.8111  10.8213
    10.9183  10.9762  11.0574  11.0579  11.1009  11.1409  11.1410  11.1539
    11.2239  11.2535  11.2540  11.3389  11.3414  11.5300  11.7166  11.7902
    11.7914  11.8304  11.8326  11.8409  11.8421  11.8761  12.0865  12.0868
    12.1325  12.2064  12.2079  12.2279  12.2585  12.2594  12.2754  12.2867
    12.3269  12.3645  12.4466  12.4470  12.4799  12.5205  12.5288  12.5405
    12.5411  12.7027  12.7053  12.7331  12.7332  12.8375  12.9282  12.9286
    13.0614  13.0734  13.2781  13.2798  13.3265  14.1455  15.0347  15.0352
    15.0932  15.0972  15.2321  16.0550  16.1164  16.4615  16.4624  16.7109
    16.7127  16.8326  17.1130  17.1137  17.2910  17.2949  17.4375  17.4610
    17.5170  17.5181  17.6614  17.6920  17.6922  17.8543  18.1672  18.2256
    18.7845  18.7999  19.1818  19.1820  19.3219  19.3222  19.5095  19.6613
    19.6837  19.6842

[...]

          k =-0.1768-0.1768-0.1360 ( 13673 PWs)   bands (ev):

[...]

 ------ SPIN DOWN ----------

[...]

          k = 0.3536 0.0000-0.4081 ( 13687 PWs)   bands (ev):

[...]

          k =-0.1768-0.5303 0.2721 ( 13683 PWs)   bands (ev):

   -66.4406 -66.4397 -66.4384 -66.4368 -61.8507 -61.8498 -61.8480 -61.8467
   -35.2303 -35.2303 -35.2282 -35.2271 -35.1643 -35.1635 -35.1611 -35.1598
   -35.1513 -35.1496 -35.1458 -35.1429 -30.6855 -30.6854 -30.6831 -30.6824
   -30.6768 -30.6764 -30.6747 -30.6736 -30.6729 -30.6702 -30.6635 -30.6593
     6.7157   7.5400   7.7026   8.2564   8.5274   8.5415   8.6845   8.7672
     8.8213   8.8860   8.8999   8.9821   9.0125   9.0862   9.2075   9.2379
     9.2647   9.2662   9.3208   9.3731   9.3977   9.4808   9.5634   9.5895
     9.6253   9.6260   9.6417   9.7018   9.7571   9.7846   9.8245   9.8640
     9.8720   9.9125   9.9702  10.0724  10.1046  10.1069  10.2787  10.2864
    10.3008  10.3023  10.4444  10.4864  10.4928  10.5428  10.5496  10.6059
    10.6735  10.7895  10.8077  10.8823  10.9064  10.9516  10.9612  10.9884
    11.0491  11.0833  11.0990  11.1557  11.1560  11.1659  11.2811  11.3245
    11.3704  11.4057  11.4244  11.4832  11.5468  11.6574  11.6770  11.6876
    11.7108  11.7203  11.7819  11.7826  11.8894  11.9121  11.9957  12.0068
    12.0201  12.0239  12.0918  12.1783  12.2195  12.2275  12.2608  12.2690
    12.2802  12.2836  12.3443  12.3724  12.3870  12.4568  12.4816  12.5649
    12.6362  12.6659  12.6910  12.7326  12.8531  12.8730  12.9176  12.9842
    13.1396  13.2235  13.2561  13.3487  13.7137  14.0553  14.2888  14.6509
    14.7474  15.1159  15.6062  15.6161  15.6219  15.6576  15.8579  16.0726
    16.5073  16.6396  17.1341  17.1739  17.2017  17.3747  17.4112  17.4233
    17.4835  17.5810  17.6176  17.6794  17.7631  17.7949  18.0089  18.0423
    18.1321  18.1557  18.3011  18.3839  18.3841  18.6322  19.0835  19.8985
    20.1333  20.2200

     the Fermi energy is    15.5867 ev

!    total energy              =  -14693.92773655 Ry
     Harris-Foulkes estimate   =  -14693.92772452 Ry
     estimated scf accuracy    <       0.00000094 Ry

     total all-electron energy =   -626921.523458 Ry

     The total energy is the sum of the following terms:

     one-electron contribution =    -698.40077950 Ry
     hartree contribution      =     651.60758961 Ry
     xc contribution           =    -738.13981045 Ry
     ewald contribution        =   -2207.56121140 Ry
     Hubbard energy            =       0.44873732 Ry
     one-center paw contrib.   =  -11701.88226213 Ry

     total magnetization       =    -0.00 Bohr mag/cell
     absolute magnetization    =    36.80 Bohr mag/cell

     convergence has been achieved in  21 iterations

     Writing output data file mnau2.save/

     General routines

     Parallel routines

     Hubbard U routines

   This run was terminated on:  12:42:21  26Mar2019

   JOB DONE.