     Program PWSCF v.6.3MaX starts on 28Mar2019 at 17:34:54

     R & G space division:  proc/nbgrp/npool/nimage =      32
     Waiting for input...
     Reading input from standard input

     Current dimensions of program PWSCF are:
     Max number of different atomic species (ntypx) = 10
     Max number of k-points (npk) =  40000
     Max angular momentum in pseudopotentials (lmaxx) =  3
     Message from routine read_upf::
     Pseudo file ./pseudo/Mn.pbe-spn-kjpaw_psl.0.3.1.UPF has been successfully fixed on the fly.
To avoid this message in the future you can permanently fix
 your pseudo files following instructions given in:
               file Mn.pbe-spn-kjpaw_psl.0.3.1.UPF: wavefunction(s)  3P 3D renormalized
     Message from routine read_upf::
     Pseudo file ./pseudo/Mn.pbe-spn-kjpaw_psl.0.3.1.UPF has been successfully fixed on the fly.
To avoid this message in the future you can permanently fix
 your pseudo files following instructions given in:
               file Mn.pbe-spn-kjpaw_psl.0.3.1.UPF: wavefunction(s)  3P 3D renormalized
     Message from routine read_upf::
     Pseudo file ./pseudo/Au.pbe-dn-kjpaw_psl.0.1.UPF has been successfully fixed on the fly.
To avoid this message in the future you can permanently fix
 your pseudo files following instructions given in:
               file Au.pbe-dn-kjpaw_psl.0.1.UPF: wavefunction(s)  6S 6P 5D renormalized

     Found symmetry operation: I + (  0.0000 -0.5000  0.0000)
     This is a supercell, fractional translations are disabled

     bravais-lattice index     =            0
     lattice parameter (alat)  =      18.0125  a.u.
     unit-cell volume          =    2685.0513 (a.u.)^3
     number of atoms/cell      =           24
     number of atomic types    =            3
     number of electrons       =       296.00
     number of Kohn-Sham states=          178
     kinetic-energy cutoff     =      45.0000  Ry
     charge density cutoff     =     400.0000  Ry
     convergence threshold     =      1.0E-06
     mixing beta               =       0.1000
     number of iterations used =            8  plain     mixing
     Exchange-correlation      = SLA PW PBX PBC ( 1  4  3  4 0 0)

     celldm(1)=  18.012490  celldm(2)=   0.000000  celldm(3)=   0.000000
     celldm(4)=   0.000000  celldm(5)=   0.000000  celldm(6)=   0.000000

     crystal axes: (cart. coord. in units of alat)
               a(1) = (   0.707107  -0.707107   0.000000 )
               a(2) = (  -0.707107  -0.707107   0.000000 )
               a(3) = (   0.176777   0.176777  -0.459443 )

     reciprocal axes: (cart. coord. in units 2 pi/alat)
               b(1) = (  0.707107 -0.707107  0.000000 )
               b(2) = ( -0.707107 -0.707107 -0.544138 )
               b(3) = (  0.000000  0.000000 -2.176550 )

     PseudoPot. # 1 for Mn read from file:
     ./pseudo/Mn.pbe-spn-kjpaw_psl.0.3.1.UPF
     MD5 check sum: 7eef95dd2aae66803482eea66ebeebf1
     Pseudo is Projector augmented-wave + core cor, Zval = 15.0
     Generated using "atomic" code by A. Dal Corso v.5.0.99 svn rev. 10869
     Shape of augmentation charge: PSQ
     Using radial grid of 1187 points,  6 beta functions with:
                l(1) =   0
                l(2) =   0
                l(3) =   1
                l(4) =   1
                l(5) =   2
                l(6) =   2
     Q(r) pseudized with 0 coefficients

     PseudoPot. # 2 for Mn read from file:
     ./pseudo/Mn.pbe-spn-kjpaw_psl.0.3.1.UPF
     MD5 check sum: 7eef95dd2aae66803482eea66ebeebf1
     Pseudo is Projector augmented-wave + core cor, Zval = 15.0
     Generated using "atomic" code by A. Dal Corso v.5.0.99 svn rev. 10869
     Shape of augmentation charge: PSQ
     Using radial grid of 1187 points,  6 beta functions with:
                l(1) =   0
                l(2) =   0
                l(3) =   1
                l(4) =   1
                l(5) =   2
                l(6) =   2
     Q(r) pseudized with 0 coefficients

     PseudoPot. # 3 for Au read from file:
     ./pseudo/Au.pbe-dn-kjpaw_psl.0.1.UPF
     MD5 check sum: 5c9b92683623e7ae2ab3f8e525febab6
     Pseudo is Projector augmented-wave + core cor, Zval = 11.0
     Generated using "atomic" code by A. Dal Corso v.5.0.2 svn rev. 9415
     Shape of augmentation charge: PSQ
     Using radial grid of 1279 points,  6 beta functions with:
                l(1) =   0
                l(2) =   0
                l(3) =   1
                l(4) =   1
                l(5) =   2
                l(6) =   2
     Q(r) pseudized with 0 coefficients

     atomic species   valence    mass     pseudopotential
        Mn1           15.00    54.93800     Mn( 1.00)
        Mn2           15.00    54.93800     Mn( 1.00)
        Au            11.00   196.96600     Au( 1.00)

     Starting magnetic structure
     atomic species   magnetization
        Mn1          1.000
        Mn2         -1.000
        Au           0.000

     Full LDA+U calculation (l_max = 2) with parameters (eV):
     U(  1) =   3.1200   J(  1) =   0.7000   B(  1) =   0.0803
     U(  2) =   3.1200   J(  2) =   0.7000   B(  2) =   0.0803

      2 Sym. Ops. (no inversion) found

   Cartesian axes

     site n.     atom                  positions (alat units)
         1           Mn1 tau(   1) = (   0.3535534  -0.3535534   0.0000000  )
         2           Mn1 tau(   2) = (   0.0000000   0.0000000   0.0000000  )
         3           Mn1 tau(   3) = (   0.0000000  -0.3535534   0.0000000  )
         4           Mn2 tau(   4) = (   0.3535534  -0.7071068   0.0000000  )
         5           Mn1 tau(   5) = (  -0.3535534  -0.3535534   0.0000000  )
         6           Mn1 tau(   6) = (   0.0000000  -0.7071068   0.0000000  )
         7           Mn1 tau(   7) = (  -0.3535534  -0.7071068   0.0000000  )
         8           Mn2 tau(   8) = (   0.0000000  -1.0606602   0.0000000  )
         9           Au  tau(   9) = (  -0.1767767  -0.1767767  -0.1470216  )
        10           Au  tau(  10) = (   0.1767767  -0.5303301  -0.1470216  )
        11           Au  tau(  11) = (  -0.1767767  -0.5303301  -0.1470216  )
        12           Au  tau(  12) = (   0.1767767  -0.8838835  -0.1470216  )
        13           Au  tau(  13) = (  -0.5303301  -0.5303301  -0.1470216  )
        14           Au  tau(  14) = (  -0.1767767  -0.8838835  -0.1470216  )
        15           Au  tau(  15) = (   0.5303301  -0.5303301  -0.1470216  )
        16           Au  tau(  16) = (   0.1767767  -0.1767767  -0.1470216  )
        17           Au  tau(  17) = (   0.3535534  -0.3535534  -0.3124210  )
        18           Au  tau(  18) = (   0.0000000   0.0000000  -0.3124210  )
        19           Au  tau(  19) = (   0.0000000  -0.3535534  -0.3124210  )
        20           Au  tau(  20) = (   0.3535534  -0.7071068  -0.3124210  )
        21           Au  tau(  21) = (  -0.3535534  -0.3535534  -0.3124210  )
        22           Au  tau(  22) = (  -0.0000000  -0.7071068  -0.3124210  )
        23           Au  tau(  23) = (  -0.3535534  -0.7071068  -0.3124210  )
        24           Au  tau(  24) = (   0.0000000  -1.0606602  -0.3124210  )

     number of k points=   170 (tetrahedron method)

     Number of k-points >= 100: set verbosity='high' to print them.

     Check: negative/imaginary core charge=   -0.000006    0.000000

     Initial potential from superposition of free atoms

     starting charge  295.99426, renormalised to  296.00000
     Number of +U iterations with fixed ns =  0
     Starting occupations:
 --- enter write_ns ---
 LDA+U parameters:
U(  1) =   3.1200   J(  1) =   0.7000   B(  1) =   0.0803
U(  2) =   3.1200   J(  2) =   0.7000   B(  2) =   0.0803
atom    1   Tr[ns(na)] (up, down, total) =   5.00000  0.00000  5.00000
   spin  1
    eigenvalues:
  1.000  1.000  1.000  1.000  1.000
    eigenvectors:
  1.000  0.000  0.000  0.000  0.000
  0.000  1.000  0.000  0.000  0.000
  0.000  0.000  1.000  0.000  0.000
  0.000  0.000  0.000  1.000  0.000
  0.000  0.000  0.000  0.000  1.000
    occupations:
  1.000  0.000  0.000  0.000  0.000
  0.000  1.000  0.000  0.000  0.000
  0.000  0.000  1.000  0.000  0.000
  0.000  0.000  0.000  1.000  0.000
  0.000  0.000  0.000  0.000  1.000
   spin  2
    eigenvalues:
  0.000  0.000  0.000  0.000  0.000
    eigenvectors:
  1.000  0.000  0.000  0.000  0.000
  0.000  1.000  0.000  0.000  0.000
  0.000  0.000  1.000  0.000  0.000
  0.000  0.000  0.000  1.000  0.000
  0.000  0.000  0.000  0.000  1.000
    occupations:
  0.000  0.000  0.000  0.000  0.000
  0.000  0.000  0.000  0.000  0.000
  0.000  0.000  0.000  0.000  0.000
  0.000  0.000  0.000  0.000  0.000
  0.000  0.000  0.000  0.000  0.000
atomic mag. moment =     5.000000
atom    2   Tr[ns(na)] (up, down, total) =   5.00000  0.00000  5.00000
   spin  1
    eigenvalues:
  1.000  1.000  1.000  1.000  1.000
    eigenvectors:
  1.000  0.000  0.000  0.000  0.000
  0.000  1.000  0.000  0.000  0.000
  0.000  0.000  1.000  0.000  0.000
  0.000  0.000  0.000  1.000  0.000
  0.000  0.000  0.000  0.000  1.000
    occupations:
  1.000  0.000  0.000  0.000  0.000
  0.000  1.000  0.000  0.000  0.000
  0.000  0.000  1.000  0.000  0.000
  0.000  0.000  0.000  1.000  0.000
  0.000  0.000  0.000  0.000  1.000
   spin  2
    eigenvalues:
  0.000  0.000  0.000  0.000  0.000
    eigenvectors:
  1.000  0.000  0.000  0.000  0.000
  0.000  1.000  0.000  0.000  0.000
  0.000  0.000  1.000  0.000  0.000
  0.000  0.000  0.000  1.000  0.000
  0.000  0.000  0.000  0.000  1.000
    occupations:
  0.000  0.000  0.000  0.000  0.000
  0.000  0.000  0.000  0.000  0.000
  0.000  0.000  0.000  0.000  0.000
  0.000  0.000  0.000  0.000  0.000
  0.000  0.000  0.000  0.000  0.000
atomic mag. moment =     5.000000
atom    3   Tr[ns(na)] (up, down, total) =   5.00000  0.00000  5.00000
   spin  1
    eigenvalues:
  1.000  1.000  1.000  1.000  1.000
    eigenvectors:
  1.000  0.000  0.000  0.000  0.000
  0.000  1.000  0.000  0.000  0.000
  0.000  0.000  1.000  0.000  0.000
  0.000  0.000  0.000  1.000  0.000
  0.000  0.000  0.000  0.000  1.000
    occupations:
  1.000  0.000  0.000  0.000  0.000
  0.000  1.000  0.000  0.000  0.000
  0.000  0.000  1.000  0.000  0.000
  0.000  0.000  0.000  1.000  0.000
  0.000  0.000  0.000  0.000  1.000
   spin  2
    eigenvalues:
  0.000  0.000  0.000  0.000  0.000
    eigenvectors:
  1.000  0.000  0.000  0.000  0.000
  0.000  1.000  0.000  0.000  0.000
  0.000  0.000  1.000  0.000  0.000
  0.000  0.000  0.000  1.000  0.000
  0.000  0.000  0.000  0.000  1.000
    occupations:
  0.000  0.000  0.000  0.000  0.000
  0.000  0.000  0.000  0.000  0.000
  0.000  0.000  0.000  0.000  0.000
  0.000  0.000  0.000  0.000  0.000
  0.000  0.000  0.000  0.000  0.000
atomic mag. moment =     5.000000
atom    4   Tr[ns(na)] (up, down, total) =   0.00000  5.00000  5.00000
   spin  1
    eigenvalues:
  0.000  0.000  0.000  0.000  0.000
    eigenvectors:
  1.000  0.000  0.000  0.000  0.000
  0.000  1.000  0.000  0.000  0.000
  0.000  0.000  1.000  0.000  0.000
  0.000  0.000  0.000  1.000  0.000
  0.000  0.000  0.000  0.000  1.000
    occupations:
  0.000  0.000  0.000  0.000  0.000
  0.000  0.000  0.000  0.000  0.000
  0.000  0.000  0.000  0.000  0.000
  0.000  0.000  0.000  0.000  0.000
[...]
   spin  2
    eigenvalues:
  1.003  1.003  1.003  1.003  1.003
    eigenvectors:
  0.001  0.000  0.000  0.999  0.000
  0.000  0.624  0.376  0.000  0.000
  0.000  0.376  0.624  0.000  0.000
  0.000  0.000  0.000  0.000  0.999
  0.999  0.000  0.000  0.001  0.000
    occupations:
  1.003 -0.000 -0.000  0.000 -0.000
 -0.000  1.003  0.000 -0.000 -0.000
 -0.000  0.000  1.003  0.000  0.000
  0.000 -0.000  0.000  1.003  0.000
 -0.000 -0.000  0.000  0.000  1.003
atomic mag. moment =    -4.738130
atom    5   Tr[ns(na)] (up, down, total) =   5.01482  0.27486  5.28968
   spin  1
    eigenvalues:
  1.003  1.003  1.003  1.003  1.004
    eigenvectors:
  0.000  0.001  0.000  0.999  0.000
  0.001  0.499  0.500  0.000  0.000
  0.001  0.499  0.500  0.000  0.000
  0.000  0.000  0.000  0.000  1.000
  0.998  0.001  0.000  0.000  0.000
    occupations:
  1.003  0.000  0.000 -0.000 -0.000
  0.000  1.003 -0.000  0.000  0.000
  0.000 -0.000  1.003 -0.000  0.000
 -0.000  0.000 -0.000  1.004 -0.000
 -0.000  0.000  0.000 -0.000  1.003
   spin  2
    eigenvalues:
  0.042  0.051  0.055  0.055  0.073
    eigenvectors:
  0.000  1.000  0.000  0.000  0.000
  0.000  0.000  0.500  0.500  0.000
  0.000  0.000  0.500  0.500  0.000
  1.000  0.000  0.000  0.000  0.000
  0.000  0.000  0.000  0.000  1.000
    occupations:
  0.051 -0.000 -0.000 -0.000  0.000
 -0.000  0.055  0.000 -0.000 -0.000
 -0.000  0.000  0.055  0.000 -0.000
 -0.000 -0.000  0.000  0.042 -0.000
  0.000 -0.000 -0.000 -0.000  0.073
atomic mag. moment =     4.739956
atom    6   Tr[ns(na)] (up, down, total) =   5.01503  0.27393  5.28896
   spin  1
    eigenvalues:
  1.003  1.003  1.003  1.003  1.004
    eigenvectors:
  0.000  0.000  0.004  0.996  0.000
  0.001  0.499  0.497  0.002  0.001
  0.001  0.499  0.497  0.002  0.001
  0.000  0.002  0.000  0.000  0.998
  0.998  0.000  0.002  0.000  0.000
    occupations:
  1.003 -0.000 -0.000 -0.000 -0.000
 -0.000  1.003  0.000  0.000  0.000
 -0.000  0.000  1.003 -0.000  0.000
 -0.000  0.000 -0.000  1.004 -0.000
 -0.000  0.000  0.000 -0.000  1.003
   spin  2
    eigenvalues:
  0.041  0.050  0.054  0.055  0.073
    eigenvectors:
  0.000  0.999  0.000  0.001  0.000
  0.000  0.000  0.500  0.500  0.000
  0.000  0.000  0.500  0.500  0.000
  1.000  0.000  0.000  0.000  0.000
  0.000  0.000  0.000  0.000  1.000
    occupations:
  0.050 -0.000 -0.000 -0.000  0.000
 -0.000  0.054  0.000 -0.000  0.000
 -0.000  0.000  0.054  0.000  0.000
 -0.000 -0.000  0.000  0.041 -0.000
  0.000  0.000  0.000 -0.000  0.073
atomic mag. moment =     4.741105
atom    7   Tr[ns(na)] (up, down, total) =   5.01501  0.27151  5.28652
   spin  1
    eigenvalues:
  1.003  1.003  1.003  1.003  1.004
    eigenvectors:
  0.000  0.000  0.000  0.999  0.001
  0.000  0.783  0.216  0.000  0.000
  0.000  0.216  0.783  0.000  0.000
  0.000  0.000  0.000  0.001  0.999
  1.000  0.000  0.000  0.000  0.000
    occupations:
  1.003  0.000 -0.000 -0.000 -0.000
  0.000  1.003 -0.000 -0.000 -0.000
 -0.000 -0.000  1.003  0.000  0.000
 -0.000 -0.000  0.000  1.004 -0.000
 -0.000 -0.000  0.000 -0.000  1.003
   spin  2
    eigenvalues:
  0.040  0.049  0.054  0.056  0.073
    eigenvectors:
  0.000  0.998  0.001  0.000  0.001
  0.000  0.000  0.529  0.471  0.000
  0.000  0.000  0.470  0.529  0.000
  1.000  0.000  0.000  0.000  0.000
  0.000  0.001  0.000  0.000  0.999
    occupations:
  0.049  0.000  0.000  0.000 -0.001
  0.000  0.055 -0.001 -0.000  0.000
  0.000 -0.001  0.055  0.000  0.000
  0.000 -0.000  0.000  0.040 -0.000
 -0.001  0.000  0.000 -0.000  0.073
atomic mag. moment =     4.743500
atom    8   Tr[ns(na)] (up, down, total) =   0.27639  5.01452  5.29090
   spin  1
    eigenvalues:
  0.043  0.052  0.054  0.055  0.072
    eigenvectors:
  0.000  0.992  0.007  0.000  0.001
  0.000  0.003  0.514  0.483  0.000
  0.000  0.005  0.479  0.517  0.000
  1.000  0.000  0.000  0.000  0.000
  0.000  0.001  0.000  0.000  0.999
    occupations:
  0.052  0.000  0.000  0.000 -0.001
  0.000  0.055 -0.001 -0.000  0.000
  0.000 -0.001  0.055 -0.000  0.000
  0.000 -0.000 -0.000  0.043 -0.000
 -0.001  0.000  0.000 -0.000  0.072
   spin  2
    eigenvalues:
  1.003  1.003  1.003  1.003  1.003
    eigenvectors:
  0.001  0.000  0.000  0.999  0.000
  0.000  0.376  0.624  0.000  0.000
  0.000  0.624  0.376  0.000  0.000
  0.000  0.000  0.000  0.000  0.999
  0.999  0.000  0.000  0.001  0.000
    occupations:
  1.003 -0.000 -0.000 -0.000 -0.000
 -0.000  1.003  0.000 -0.000  0.000
 -0.000  0.000  1.003  0.000 -0.000
 -0.000 -0.000  0.000  1.003 -0.000
 -0.000  0.000 -0.000 -0.000  1.003
atomic mag. moment =    -4.738130
N of occupied +U levels =   42.311817
 --- exit write_ns ---

     total energy              =  -14679.20129181 Ry
     Harris-Foulkes estimate   =  -14669.84300033 Ry
     estimated scf accuracy    <      21.25649949 Ry

     total magnetization       =    20.97 Bohr mag/cell
     absolute magnetization    =    43.58 Bohr mag/cell

     iteration #  2     ecut=    45.00 Ry     beta= 0.10
     Davidson diagonalization with overlap
     ethr =  7.18E-03,  avg # of iterations =  1.0

[...]

     total energy              =  -14693.95161304 Ry
     Harris-Foulkes estimate   =  -14693.95161131 Ry
     estimated scf accuracy    <       0.00000107 Ry

[...]

     iteration # 23     ecut=    45.00 Ry     beta= 0.10
     Davidson diagonalization with overlap
     ethr =  3.61E-10,  avg # of iterations =  1.7

     Magnetic moment per site:
     atom:    1    charge:   13.5446    magn:    4.2070    constr:    0.0000
     atom:    2    charge:   13.5446    magn:    4.2070    constr:    0.0000
     atom:    3    charge:   13.5462    magn:    4.1747    constr:    0.0000
     atom:    4    charge:   13.5341    magn:   -4.2722    constr:    0.0000
     atom:    5    charge:   13.5451    magn:    4.2067    constr:    0.0000
     atom:    6    charge:   13.5451    magn:    4.2067    constr:    0.0000
     atom:    7    charge:   13.5462    magn:    4.1747    constr:    0.0000
     atom:    8    charge:   13.5341    magn:   -4.2722    constr:    0.0000
     atom:    9    charge:    9.0901    magn:    0.0107    constr:    0.0000
     atom:   10    charge:    9.0901    magn:    0.0107    constr:    0.0000
     atom:   11    charge:    9.0911    magn:    0.0461    constr:    0.0000
     atom:   12    charge:    9.0917    magn:   -0.0078    constr:    0.0000
     atom:   13    charge:    9.0902    magn:    0.0106    constr:    0.0000
     atom:   14    charge:    9.0902    magn:    0.0106    constr:    0.0000
     atom:   15    charge:    9.0916    magn:   -0.0078    constr:    0.0000
     atom:   16    charge:    9.0912    magn:    0.0461    constr:    0.0000
     atom:   17    charge:    9.0902    magn:    0.0106    constr:    0.0000
     atom:   18    charge:    9.0902    magn:    0.0106    constr:    0.0000
     atom:   19    charge:    9.0911    magn:    0.0461    constr:    0.0000
     atom:   20    charge:    9.0917    magn:   -0.0078    constr:    0.0000
     atom:   21    charge:    9.0901    magn:    0.0107    constr:    0.0000
     atom:   22    charge:    9.0901    magn:    0.0107    constr:    0.0000
     atom:   23    charge:    9.0912    magn:    0.0461    constr:    0.0000
     atom:   24    charge:    9.0916    magn:   -0.0078    constr:    0.0000

     End of self-consistent calculation
 --- enter write_ns ---
 LDA+U parameters:
U(  1) =   3.1200   J(  1) =   0.7000   B(  1) =   0.0803
U(  2) =   3.1200   J(  2) =   0.7000   B(  2) =   0.0803
atom    1   Tr[ns(na)] (up, down, total) =   4.96748  0.76126  5.72874
   spin  1
    eigenvalues:
  0.983  0.993  0.993  0.997  1.001
    eigenvectors:
  0.000  0.000  0.000  1.000  0.000
  0.000  0.500  0.500  0.000  0.000
  0.000  0.500  0.500  0.000  0.000
  0.000  0.000  0.000  0.000  1.000
  1.000  0.000  0.000  0.000  0.000
    occupations:
  0.997 -0.000 -0.000 -0.000  0.000
 -0.000  0.993 -0.000 -0.000 -0.000
 -0.000 -0.000  0.993  0.000 -0.000
 -0.000 -0.000  0.000  1.001 -0.000
  0.000 -0.000 -0.000 -0.000  0.983
   spin  2
    eigenvalues:
  0.068  0.138  0.143  0.153  0.260
    eigenvectors:
  0.000  0.987  0.000  0.001  0.011
  0.000  0.001  0.500  0.499  0.000
  0.000  0.001  0.500  0.499  0.000
  1.000  0.000  0.000  0.000  0.000
  0.000  0.011  0.000  0.000  0.988
    occupations:
  0.139 -0.000 -0.000 -0.000 -0.013
 -0.000  0.148  0.005 -0.000  0.001
 -0.000  0.005  0.148  0.000  0.001
 -0.000 -0.000  0.000  0.068 -0.000
 -0.013  0.001  0.001 -0.000  0.258
atomic mag. moment =     4.206224
atom    2   Tr[ns(na)] (up, down, total) =   4.96748  0.76125  5.72873
   spin  1
    eigenvalues:
  0.983  0.993  0.993  0.997  1.001
    eigenvectors:
  0.000  0.000  0.000  1.000  0.000
  0.000  0.500  0.500  0.000  0.000
  0.000  0.500  0.500  0.000  0.000
  0.000  0.000  0.000  0.000  1.000
  1.000  0.000  0.000  0.000  0.000
    occupations:
  0.997 -0.000 -0.000 -0.000  0.000
 -0.000  0.993 -0.000 -0.000 -0.000
 -0.000 -0.000  0.993  0.000 -0.000
 -0.000 -0.000  0.000  1.001 -0.000
  0.000 -0.000 -0.000 -0.000  0.983
   spin  2
    eigenvalues:
  0.068  0.138  0.143  0.153  0.260
    eigenvectors:
  0.000  0.987  0.000  0.001  0.011
  0.000  0.001  0.500  0.499  0.000
  0.000  0.001  0.500  0.499  0.000
  1.000  0.000  0.000  0.000  0.000
  0.000  0.011  0.000  0.000  0.988
    occupations:
  0.139 -0.000 -0.000 -0.000 -0.013
 -0.000  0.148  0.005 -0.000  0.001
 -0.000  0.005  0.148  0.000  0.001
 -0.000 -0.000  0.000  0.068 -0.000
 -0.013  0.001  0.001 -0.000  0.258
atomic mag. moment =     4.206231
atom    3   Tr[ns(na)] (up, down, total) =   4.96403  0.78428  5.74830
   spin  1
    eigenvalues:
  0.982  0.990  0.993  0.997  1.002
    eigenvectors:
  0.000  0.000  0.000  1.000  0.000
  0.000  0.500  0.500  0.000  0.000
  0.000  0.500  0.500  0.000  0.000
  0.000  0.000  0.000  0.000  1.000
  1.000  0.000  0.000  0.000  0.000
    occupations:
  0.997  0.000  0.000  0.000 -0.000
  0.000  0.992  0.001 -0.000 -0.000
  0.000  0.001  0.992  0.000 -0.000
  0.000 -0.000  0.000  1.002  0.000
 -0.000 -0.000 -0.000  0.000  0.982
   spin  2
    eigenvalues:
  0.066  0.141  0.142  0.164  0.271
    eigenvectors:
  0.000  1.000  0.000  0.000  0.000
  0.000  0.000  0.500  0.500  0.000
  0.000  0.000  0.500  0.500  0.000
  1.000  0.000  0.000  0.000  0.000
  0.000  0.000  0.000  0.000  1.000
    occupations:
  0.141  0.000  0.000  0.000  0.001
  0.000  0.153  0.011 -0.000  0.000
  0.000  0.011  0.153  0.000  0.000
  0.000 -0.000  0.000  0.066 -0.000
  0.001  0.000  0.000 -0.000  0.271
atomic mag. moment =     4.179753
atom    4   Tr[ns(na)] (up, down, total) =   0.70997  4.97169  5.68166
   spin  1
    eigenvalues:
  0.071  0.125  0.137  0.148  0.228
    eigenvectors:
  0.000  0.961  0.002  0.000  0.038
  0.000  0.001  0.499  0.500  0.000
  0.000  0.001  0.499  0.500  0.000
  1.000  0.000  0.000  0.000  0.000
  0.000  0.038  0.000  0.000  0.962
    occupations:
  0.129  0.000  0.000  0.000 -0.020
  0.000  0.143 -0.005 -0.000  0.001
  0.000 -0.005  0.143  0.000  0.001
  0.000 -0.000  0.000  0.071 -0.000
 -0.020  0.001  0.001 -0.000  0.224
   spin  2
    eigenvalues:
  0.986  0.993  0.994  0.997  1.001
    eigenvectors:
  0.002  0.000  0.000  0.998  0.000
  0.000  0.500  0.500  0.000  0.000
  0.000  0.500  0.500  0.000  0.000
  0.000  0.000  0.000  0.000  1.000
  0.998  0.000  0.000  0.002  0.000
    occupations:
  0.997  0.000  0.000  0.000  0.000
  0.000  0.993  0.000  0.000 -0.000
  0.000  0.000  0.993 -0.000 -0.000
  0.000  0.000 -0.000  1.001  0.000
  0.000 -0.000 -0.000  0.000  0.986
atomic mag. moment =    -4.261719
atom    5   Tr[ns(na)] (up, down, total) =   4.96752  0.76175  5.72927
   spin  1
    eigenvalues:
  0.983  0.993  0.993  0.997  1.001
    eigenvectors:
  0.000  0.000  0.000  1.000  0.000
  0.000  0.500  0.500  0.000  0.000
  0.000  0.500  0.500  0.000  0.000
  0.000  0.000  0.000  0.000  1.000
  1.000  0.000  0.000  0.000  0.000
    occupations:
  0.997 -0.000 -0.000 -0.000  0.000
 -0.000  0.993 -0.000 -0.000 -0.000
 -0.000 -0.000  0.993  0.000 -0.000
 -0.000 -0.000  0.000  1.001 -0.000
  0.000 -0.000 -0.000 -0.000  0.983
   spin  2
    eigenvalues:
  0.068  0.138  0.143  0.153  0.260
    eigenvectors:
  0.000  0.987  0.000  0.001  0.011
  0.000  0.001  0.500  0.499  0.000
  0.000  0.001  0.500  0.499  0.000
  1.000  0.000  0.000  0.000  0.000
  0.000  0.011  0.000  0.000  0.989
    occupations:
  0.139 -0.001 -0.001 -0.000 -0.013
 -0.001  0.148  0.005 -0.000  0.001
 -0.001  0.005  0.148  0.000  0.001
 -0.000 -0.000  0.000  0.068 -0.000
 -0.013  0.001  0.001 -0.000  0.259
atomic mag. moment =     4.205765
atom    6   Tr[ns(na)] (up, down, total) =   4.96752  0.76175  5.72927
   spin  1
    eigenvalues:
  0.983  0.993  0.993  0.997  1.001
    eigenvectors:
  0.000  0.000  0.000  1.000  0.000
  0.000  0.500  0.500  0.000  0.000
  0.000  0.500  0.500  0.000  0.000
  0.000  0.000  0.000  0.000  1.000
  1.000  0.000  0.000  0.000  0.000
    occupations:
  0.997 -0.000 -0.000 -0.000  0.000
 -0.000  0.993 -0.000 -0.000 -0.000
 -0.000 -0.000  0.993  0.000 -0.000
 -0.000 -0.000  0.000  1.001 -0.000
  0.000 -0.000 -0.000 -0.000  0.983
   spin  2
    eigenvalues:
  0.068  0.138  0.143  0.153  0.260
    eigenvectors:
  0.000  0.987  0.000  0.001  0.011
  0.000  0.001  0.500  0.499  0.000
  0.000  0.001  0.500  0.499  0.000
  1.000  0.000  0.000  0.000  0.000
  0.000  0.011  0.000  0.000  0.989
    occupations:
  0.139 -0.001 -0.001 -0.000 -0.013
 -0.001  0.148  0.005 -0.000  0.001
 -0.001  0.005  0.148  0.000  0.001
 -0.000 -0.000  0.000  0.068 -0.000
 -0.013  0.001  0.001 -0.000  0.259
atomic mag. moment =     4.205768
atom    7   Tr[ns(na)] (up, down, total) =   4.96403  0.78428  5.74830
   spin  1
    eigenvalues:
  0.982  0.990  0.993  0.997  1.002
    eigenvectors:
  0.000  0.000  0.000  1.000  0.000
  0.000  0.500  0.500  0.000  0.000
  0.000  0.500  0.500  0.000  0.000
  0.000  0.000  0.000  0.000  1.000
  1.000  0.000  0.000  0.000  0.000
    occupations:
  0.997  0.000  0.000 -0.000 -0.000
  0.000  0.992  0.001 -0.000 -0.000
  0.000  0.001  0.992  0.000 -0.000
 -0.000 -0.000  0.000  1.002 -0.000
 -0.000 -0.000 -0.000 -0.000  0.982
   spin  2
    eigenvalues:
  0.066  0.141  0.142  0.164  0.271
    eigenvectors:
  0.000  1.000  0.000  0.000  0.000
  0.000  0.000  0.500  0.500  0.000
  0.000  0.000  0.500  0.500  0.000
  1.000  0.000  0.000  0.000  0.000
  0.000  0.000  0.000  0.000  1.000
    occupations:
  0.141  0.000  0.000 -0.000  0.001
  0.000  0.153  0.011 -0.000  0.000
  0.000  0.011  0.153  0.000  0.000
 -0.000 -0.000  0.000  0.066  0.000
  0.001  0.000  0.000  0.000  0.271
atomic mag. moment =     4.179753
atom    8   Tr[ns(na)] (up, down, total) =   0.70997  4.97169  5.68166
   spin  1
    eigenvalues:
  0.071  0.125  0.137  0.148  0.228
    eigenvectors:
  0.000  0.961  0.002  0.000  0.038
  0.000  0.001  0.499  0.500  0.000
  0.000  0.001  0.499  0.500  0.000
  1.000  0.000  0.000  0.000  0.000
  0.000  0.038  0.000  0.000  0.962
    occupations:
  0.129  0.000  0.000 -0.000 -0.020
  0.000  0.143 -0.005 -0.000  0.001
  0.000 -0.005  0.143  0.000  0.001
 -0.000 -0.000  0.000  0.071  0.000
 -0.020  0.001  0.001  0.000  0.224
   spin  2
    eigenvalues:
  0.986  0.993  0.994  0.997  1.001
    eigenvectors:
  0.002  0.000  0.000  0.998  0.000
  0.000  0.500  0.500  0.000  0.000
  0.000  0.500  0.500  0.000  0.000
  0.000  0.000  0.000  0.000  1.000
  0.998  0.000  0.000  0.002  0.000
    occupations:
  0.997  0.000  0.000 -0.000  0.000
  0.000  0.993  0.000  0.000 -0.000
  0.000  0.000  0.993 -0.000 -0.000
 -0.000  0.000 -0.000  1.001 -0.000
  0.000 -0.000 -0.000 -0.000  0.986
atomic mag. moment =    -4.261719
N of occupied +U levels =   45.775944
 --- exit write_ns ---

     Number of k-points >= 100: set verbosity='high' to print the bands.

     the Fermi energy is    15.5434 ev

!    total energy              =  -14693.95162039 Ry
     Harris-Foulkes estimate   =  -14693.95161299 Ry
     estimated scf accuracy    <       0.00000064 Ry

     total all-electron energy =   -626921.547342 Ry

     The total energy is the sum of the following terms:

     one-electron contribution =    -698.62790808 Ry
     hartree contribution      =     651.74775793 Ry
     xc contribution           =    -738.10885803 Ry
     ewald contribution        =   -2207.56121140 Ry
     Hubbard energy            =       0.46190001 Ry
     one-center paw contrib.   =  -11701.86330082 Ry

     total magnetization       =    17.08 Bohr mag/cell
     absolute magnetization    =    36.69 Bohr mag/cell

     convergence has been achieved in  23 iterations

     Writing output data file mnau2.save/

     General routines

     Parallel routines

     Hubbard U routines

      40h

   This run was terminated on:  19:15: 8  28Mar2019

   JOB DONE.