     Program PWSCF v.6.3MaX starts on 30Mar2019 at  0: 1:20

     R & G space division:  proc/nbgrp/npool/nimage =      32
     Waiting for input...
     Reading input from standard input

     Current dimensions of program PWSCF are:
     Max number of different atomic species (ntypx) = 10
     Max number of k-points (npk) =  40000
     Max angular momentum in pseudopotentials (lmaxx) =  3
     Message from routine read_upf::
     Pseudo file ./pseudo/Mn.pbe-spn-kjpaw_psl.0.3.1.UPF has been successfully fixed on the fly.
To avoid this message in the future you can permanently fix
 your pseudo files following instructions given in:
               file Mn.pbe-spn-kjpaw_psl.0.3.1.UPF: wavefunction(s)  3P 3D renormalized
     Message from routine read_upf::
     Pseudo file ./pseudo/Mn.pbe-spn-kjpaw_psl.0.3.1.UPF has been successfully fixed on the fly.
To avoid this message in the future you can permanently fix
 your pseudo files following instructions given in:
               file Mn.pbe-spn-kjpaw_psl.0.3.1.UPF: wavefunction(s)  3P 3D renormalized
     Message from routine read_upf::
     Pseudo file ./pseudo/Au.pbe-dn-kjpaw_psl.0.1.UPF has been successfully fixed on the fly.
To avoid this message in the future you can permanently fix
 your pseudo files following instructions given in:
               file Au.pbe-dn-kjpaw_psl.0.1.UPF: wavefunction(s)  6S 6P 5D renormalized

     Found symmetry operation: I + (  0.5000  0.0000  0.0000)
     This is a supercell, fractional translations are disabled

     bravais-lattice index     =            0
     lattice parameter (alat)  =      18.0125  a.u.
     unit-cell volume          =    2685.0513 (a.u.)^3
     number of atoms/cell      =           24
     number of atomic types    =            3
     number of electrons       =       296.00
     number of Kohn-Sham states=          178
     kinetic-energy cutoff     =      45.0000  Ry
     charge density cutoff     =     400.0000  Ry
     convergence threshold     =      1.0E-06
     mixing beta               =       0.1000
     number of iterations used =            8  plain     mixing
     Exchange-correlation      = SLA PW PBX PBC ( 1  4  3  4 0 0)

     celldm(1)=  18.012490  celldm(2)=   0.000000  celldm(3)=   0.000000
     celldm(4)=   0.000000  celldm(5)=   0.000000  celldm(6)=   0.000000

     crystal axes: (cart. coord. in units of alat)
               a(1) = (   0.707107  -0.707107   0.000000 )
               a(2) = (  -0.707107  -0.707107   0.000000 )
               a(3) = (   0.176777   0.176777  -0.459443 )

     reciprocal axes: (cart. coord. in units 2 pi/alat)
               b(1) = (  0.707107 -0.707107  0.000000 )
               b(2) = ( -0.707107 -0.707107 -0.544138 )
               b(3) = (  0.000000  0.000000 -2.176550 )

     PseudoPot. # 1 for Mn read from file:
     ./pseudo/Mn.pbe-spn-kjpaw_psl.0.3.1.UPF
     MD5 check sum: 7eef95dd2aae66803482eea66ebeebf1
     Pseudo is Projector augmented-wave + core cor, Zval = 15.0
     Generated using "atomic" code by A. Dal Corso v.5.0.99 svn rev. 10869
     Shape of augmentation charge: PSQ
     Using radial grid of 1187 points,  6 beta functions with:
                l(1) =   0
                l(2) =   0
                l(3) =   1
                l(4) =   1
                l(5) =   2
                l(6) =   2
     Q(r) pseudized with 0 coefficients

     PseudoPot. # 2 for Mn read from file:
     ./pseudo/Mn.pbe-spn-kjpaw_psl.0.3.1.UPF
     MD5 check sum: 7eef95dd2aae66803482eea66ebeebf1
     Pseudo is Projector augmented-wave + core cor, Zval = 15.0
     Generated using "atomic" code by A. Dal Corso v.5.0.99 svn rev. 10869
     Shape of augmentation charge: PSQ
     Using radial grid of 1187 points,  6 beta functions with:
                l(1) =   0
                l(2) =   0
                l(3) =   1
                l(4) =   1
                l(5) =   2
                l(6) =   2
     Q(r) pseudized with 0 coefficients

     PseudoPot. # 3 for Au read from file:
     ./pseudo/Au.pbe-dn-kjpaw_psl.0.1.UPF
     MD5 check sum: 5c9b92683623e7ae2ab3f8e525febab6
     Pseudo is Projector augmented-wave + core cor, Zval = 11.0
     Generated using "atomic" code by A. Dal Corso v.5.0.2 svn rev. 9415
     Shape of augmentation charge: PSQ
     Using radial grid of 1279 points,  6 beta functions with:
                l(1) =   0
                l(2) =   0
                l(3) =   1
                l(4) =   1
                l(5) =   2
                l(6) =   2
     Q(r) pseudized with 0 coefficients

     atomic species   valence    mass     pseudopotential
        Mn1           15.00    54.93800     Mn( 1.00)
        Mn2           15.00    54.93800     Mn( 1.00)
        Au            11.00   196.96600     Au( 1.00)

     Starting magnetic structure
     atomic species   magnetization
        Mn1          1.000
        Mn2         -1.000
        Au           0.000

     Full LDA+U calculation (l_max = 2) with parameters (eV):
     U(  1) =   3.1200   J(  1) =   0.7000   B(  1) =   0.0803
     U(  2) =   3.1200   J(  2) =   0.7000   B(  2) =   0.0803

      4 Sym. Ops., with inversion, found

   Cartesian axes

     site n.     atom                  positions (alat units)
         1           Mn1 tau(   1) = (   0.3535534  -0.3535534   0.0000000  )
         2           Mn1 tau(   2) = (   0.0000000   0.0000000   0.0000000  )
         3           Mn2 tau(   3) = (   0.0000000  -0.3535534   0.0000000  )
         4           Mn2 tau(   4) = (   0.3535534  -0.7071068   0.0000000  )
         5           Mn1 tau(   5) = (  -0.3535534  -0.3535534   0.0000000  )
         6           Mn1 tau(   6) = (   0.0000000  -0.7071068   0.0000000  )
         7           Mn2 tau(   7) = (  -0.3535534  -0.7071068   0.0000000  )
         8           Mn2 tau(   8) = (   0.0000000  -1.0606602   0.0000000  )
         9           Au  tau(   9) = (  -0.1767767  -0.1767767  -0.1470216  )
        10           Au  tau(  10) = (   0.1767767  -0.5303301  -0.1470216  )
        11           Au  tau(  11) = (  -0.1767767  -0.5303301  -0.1470216  )
        12           Au  tau(  12) = (   0.1767767  -0.8838835  -0.1470216  )
        13           Au  tau(  13) = (  -0.5303301  -0.5303301  -0.1470216  )
        14           Au  tau(  14) = (  -0.1767767  -0.8838835  -0.1470216  )
        15           Au  tau(  15) = (   0.5303301  -0.5303301  -0.1470216  )
        16           Au  tau(  16) = (   0.1767767  -0.1767767  -0.1470216  )
        17           Au  tau(  17) = (   0.3535534  -0.3535534  -0.3124210  )
        18           Au  tau(  18) = (   0.0000000   0.0000000  -0.3124210  )
        19           Au  tau(  19) = (   0.0000000  -0.3535534  -0.3124210  )
        20           Au  tau(  20) = (   0.3535534  -0.7071068  -0.3124210  )
        21           Au  tau(  21) = (  -0.3535534  -0.3535534  -0.3124210  )
        22           Au  tau(  22) = (  -0.0000000  -0.7071068  -0.3124210  )
        23           Au  tau(  23) = (  -0.3535534  -0.7071068  -0.3124210  )
        24           Au  tau(  24) = (   0.0000000  -1.0606602  -0.3124210  )

     number of k points=   170 (tetrahedron method)

     Number of k-points >= 100: set verbosity='high' to print them.

     Check: negative/imaginary core charge=   -0.000006    0.000000

     Initial potential from superposition of free atoms

     starting charge  295.99426, renormalised to  296.00000
     Number of +U iterations with fixed ns =  0
     Starting occupations:
 --- enter write_ns ---
 LDA+U parameters:
U(  1) =   3.1200   J(  1) =   0.7000   B(  1) =   0.0803
U(  2) =   3.1200   J(  2) =   0.7000   B(  2) =   0.0803
atom    1   Tr[ns(na)] (up, down, total) =   5.00000  0.00000  5.00000
   spin  1
    eigenvalues:
  1.000  1.000  1.000  1.000  1.000
    eigenvectors:
  1.000  0.000  0.000  0.000  0.000
  0.000  1.000  0.000  0.000  0.000
  0.000  0.000  1.000  0.000  0.000
  0.000  0.000  0.000  1.000  0.000
  0.000  0.000  0.000  0.000  1.000
    occupations:
  1.000  0.000  0.000  0.000  0.000
  0.000  1.000  0.000  0.000  0.000
  0.000  0.000  1.000  0.000  0.000
  0.000  0.000  0.000  1.000  0.000
  0.000  0.000  0.000  0.000  1.000
   spin  2
    eigenvalues:
  0.000  0.000  0.000  0.000  0.000
    eigenvectors:
  1.000  0.000  0.000  0.000  0.000
  0.000  1.000  0.000  0.000  0.000
  0.000  0.000  1.000  0.000  0.000
  0.000  0.000  0.000  1.000  0.000
  0.000  0.000  0.000  0.000  1.000
    occupations:
  0.000  0.000  0.000  0.000  0.000
  0.000  0.000  0.000  0.000  0.000
  0.000  0.000  0.000  0.000  0.000
  0.000  0.000  0.000  0.000  0.000
  0.000  0.000  0.000  0.000  0.000
atomic mag. moment =     5.000000
atom    2   Tr[ns(na)] (up, down, total) =   5.00000  0.00000  5.00000
   spin  1
    eigenvalues:
  1.000  1.000  1.000  1.000  1.000
    eigenvectors:
  1.000  0.000  0.000  0.000  0.000
  0.000  1.000  0.000  0.000  0.000
  0.000  0.000  1.000  0.000  0.000
  0.000  0.000  0.000  1.000  0.000
  0.000  0.000  0.000  0.000  1.000
    occupations:
  1.000  0.000  0.000  0.000  0.000
  0.000  1.000  0.000  0.000  0.000
  0.000  0.000  1.000  0.000  0.000
  0.000  0.000  0.000  1.000  0.000
  0.000  0.000  0.000  0.000  1.000
   spin  2
    eigenvalues:
  0.000  0.000  0.000  0.000  0.000
    eigenvectors:
  1.000  0.000  0.000  0.000  0.000
  0.000  1.000  0.000  0.000  0.000
  0.000  0.000  1.000  0.000  0.000
  0.000  0.000  0.000  1.000  0.000
  0.000  0.000  0.000  0.000  1.000
    occupations:
  0.000  0.000  0.000  0.000  0.000
  0.000  0.000  0.000  0.000  0.000
  0.000  0.000  0.000  0.000  0.000
  0.000  0.000  0.000  0.000  0.000
  0.000  0.000  0.000  0.000  0.000
atomic mag. moment =     5.000000
atom    3   Tr[ns(na)] (up, down, total) =   0.00000  5.00000  5.00000
   spin  1
    eigenvalues:
  0.000  0.000  0.000  0.000  0.000
    eigenvectors:
  1.000  0.000  0.000  0.000  0.000
  0.000  1.000  0.000  0.000  0.000
  0.000  0.000  1.000  0.000  0.000
  0.000  0.000  0.000  1.000  0.000
  0.000  0.000  0.000  0.000  1.000
    occupations:
  0.000  0.000  0.000  0.000  0.000
  0.000  0.000  0.000  0.000  0.000
  0.000  0.000  0.000  0.000  0.000
  0.000  0.000  0.000  0.000  0.000
  0.000  0.000  0.000  0.000  0.000
   spin  2
    eigenvalues:
  1.000  1.000  1.000  1.000  1.000
    eigenvectors:
  1.000  0.000  0.000  0.000  0.000
  0.000  1.000  0.000  0.000  0.000
  0.000  0.000  1.000  0.000  0.000
  0.000  0.000  0.000  1.000  0.000
  0.000  0.000  0.000  0.000  1.000
    occupations:
  1.000  0.000  0.000  0.000  0.000
  0.000  1.000  0.000  0.000  0.000
  0.000  0.000  1.000  0.000  0.000
  0.000  0.000  0.000  1.000  0.000
  0.000  0.000  0.000  0.000  1.000
atomic mag. moment =    -5.000000
atom    4   Tr[ns(na)] (up, down, total) =   0.00000  5.00000  5.00000
   spin  1
    eigenvalues:
  0.000  0.000  0.000  0.000  0.000
    eigenvectors:
  1.000  0.000  0.000  0.000  0.000
  0.000  1.000  0.000  0.000  0.000
  0.000  0.000  1.000  0.000  0.000
  0.000  0.000  0.000  1.000  0.000
  0.000  0.000  0.000  0.000  1.000
    occupations:
  0.000  0.000  0.000  0.000  0.000
  0.000  0.000  0.000  0.000  0.000
  0.000  0.000  0.000  0.000  0.000
  0.000  0.000  0.000  0.000  0.000
[...]
   spin  2
    eigenvalues:
  1.003  1.003  1.003  1.003  1.003
    eigenvectors:
  0.000  0.000  0.000  0.999  0.000
  0.000  0.295  0.705  0.000  0.000
  0.000  0.705  0.295  0.000  0.000
  0.000  0.000  0.000  0.000  1.000
  1.000  0.000  0.000  0.000  0.000
    occupations:
  1.003 -0.000 -0.000 -0.000 -0.000
 -0.000  1.003 -0.000 -0.000 -0.000
 -0.000 -0.000  1.003 -0.000  0.000
 -0.000 -0.000 -0.000  1.003  0.000
 -0.000 -0.000  0.000  0.000  1.003
atomic mag. moment =    -4.737119
atom    5   Tr[ns(na)] (up, down, total) =   5.01466  0.27800  5.29266
   spin  1
    eigenvalues:
  1.003  1.003  1.003  1.003  1.003
    eigenvectors:
  0.000  0.001  0.000  0.999  0.000
  0.001  0.499  0.500  0.000  0.000
  0.001  0.499  0.500  0.000  0.000
  0.000  0.000  0.000  0.000  1.000
  0.998  0.002  0.000  0.000  0.000
    occupations:
  1.003  0.000  0.000  0.000 -0.000
  0.000  1.003 -0.000  0.000  0.000
  0.000 -0.000  1.003 -0.000  0.000
  0.000  0.000 -0.000  1.003 -0.000
 -0.000  0.000  0.000 -0.000  1.003
   spin  2
    eigenvalues:
  0.044  0.052  0.055  0.055  0.073
    eigenvectors:
  0.000  0.999  0.000  0.000  0.001
  0.000  0.000  0.500  0.500  0.000
  0.000  0.000  0.500  0.500  0.000
  1.000  0.000  0.000  0.000  0.000
  0.000  0.001  0.000  0.000  0.999
    occupations:
  0.052 -0.000 -0.000 -0.000  0.000
 -0.000  0.055 -0.000 -0.000 -0.000
 -0.000 -0.000  0.055  0.000 -0.000
 -0.000 -0.000  0.000  0.044 -0.000
  0.000 -0.000 -0.000 -0.000  0.073
atomic mag. moment =     4.736666
atom    6   Tr[ns(na)] (up, down, total) =   5.01488  0.27714  5.29202
   spin  1
    eigenvalues:
  1.003  1.003  1.003  1.003  1.003
    eigenvectors:
  0.000  0.000  0.006  0.994  0.000
  0.001  0.499  0.496  0.003  0.001
  0.001  0.499  0.496  0.003  0.001
  0.000  0.002  0.000  0.000  0.998
  0.998  0.000  0.002  0.000  0.000
    occupations:
  1.003 -0.000 -0.000  0.000 -0.000
 -0.000  1.003  0.000  0.000  0.000
 -0.000  0.000  1.003 -0.000  0.000
  0.000  0.000 -0.000  1.003 -0.000
 -0.000  0.000  0.000 -0.000  1.003
   spin  2
    eigenvalues:
  0.044  0.052  0.054  0.054  0.073
    eigenvectors:
  0.000  0.999  0.000  0.000  0.000
  0.000  0.000  0.500  0.500  0.000
  0.000  0.000  0.500  0.500  0.000
  1.000  0.000  0.000  0.000  0.000
  0.000  0.000  0.000  0.000  1.000
    occupations:
  0.052 -0.000 -0.000 -0.000  0.000
 -0.000  0.054  0.000 -0.000  0.000
 -0.000  0.000  0.054  0.000  0.000
 -0.000 -0.000  0.000  0.044 -0.000
  0.000  0.000  0.000 -0.000  0.073
atomic mag. moment =     4.737740
atom    7   Tr[ns(na)] (up, down, total) =   0.27749  5.01461  5.29209
   spin  1
    eigenvalues:
  0.044  0.052  0.054  0.055  0.073
    eigenvectors:
  0.000  0.999  0.000  0.000  0.000
  0.000  0.000  0.561  0.439  0.000
  0.000  0.000  0.439  0.561  0.000
  1.000  0.000  0.000  0.000  0.000
  0.000  0.000  0.000  0.000  1.000
    occupations:
  0.052  0.000  0.000  0.000  0.000
  0.000  0.055  0.000  0.000  0.000
  0.000  0.000  0.055  0.000  0.000
  0.000  0.000  0.000  0.044  0.000
  0.000  0.000  0.000  0.000  0.073
   spin  2
    eigenvalues:
  1.003  1.003  1.003  1.003  1.003
    eigenvectors:
  0.000  0.000  0.000  0.999  0.000
  0.000  0.295  0.705  0.000  0.000
  0.000  0.705  0.295  0.000  0.000
  0.000  0.000  0.000  0.000  1.000
  1.000  0.000  0.000  0.000  0.000
    occupations:
  1.003 -0.000 -0.000 -0.000 -0.000
 -0.000  1.003 -0.000 -0.000 -0.000
 -0.000 -0.000  1.003 -0.000  0.000
 -0.000 -0.000 -0.000  1.003  0.000
 -0.000 -0.000  0.000  0.000  1.003
atomic mag. moment =    -4.737119
atom    8   Tr[ns(na)] (up, down, total) =   0.27749  5.01461  5.29209
   spin  1
    eigenvalues:
  0.044  0.052  0.054  0.055  0.073
    eigenvectors:
  0.000  0.999  0.000  0.000  0.000
  0.000  0.000  0.439  0.561  0.000
  0.000  0.000  0.561  0.439  0.000
  1.000  0.000  0.000  0.000  0.000
  0.000  0.000  0.000  0.000  1.000
    occupations:
  0.052  0.000  0.000 -0.000  0.000
  0.000  0.055  0.000 -0.000  0.000
  0.000  0.000  0.055 -0.000  0.000
 -0.000 -0.000 -0.000  0.044 -0.000
  0.000  0.000  0.000 -0.000  0.073
   spin  2
    eigenvalues:
  1.003  1.003  1.003  1.003  1.003
    eigenvectors:
  0.000  0.000  0.000  0.999  0.000
  0.000  0.705  0.295  0.000  0.000
  0.000  0.295  0.705  0.000  0.000
  0.000  0.000  0.000  0.000  1.000
  1.000  0.000  0.000  0.000  0.000
    occupations:
  1.003 -0.000 -0.000  0.000 -0.000
 -0.000  1.003 -0.000  0.000  0.000
 -0.000 -0.000  1.003  0.000 -0.000
  0.000  0.000  0.000  1.003 -0.000
 -0.000  0.000 -0.000 -0.000  1.003
atomic mag. moment =    -4.737119
N of occupied +U levels =   42.336731
 --- exit write_ns ---

     total energy              =  -14679.30512362 Ry
     Harris-Foulkes estimate   =  -14670.06379466 Ry
     estimated scf accuracy    <      21.25348597 Ry

     total magnetization       =    -0.00 Bohr mag/cell
     absolute magnetization    =    43.45 Bohr mag/cell

     iteration #  2     ecut=    45.00 Ry     beta= 0.10
     Davidson diagonalization with overlap
     ethr =  7.18E-03,  avg # of iterations =  1.0

[...]

     total energy              =  -14693.91502106 Ry
     Harris-Foulkes estimate   =  -14693.91501779 Ry
     estimated scf accuracy    <       0.00000450 Ry

[...]

     iteration # 19     ecut=    45.00 Ry     beta= 0.10
     Davidson diagonalization with overlap
     ethr =  1.52E-09,  avg # of iterations =  2.0

     Magnetic moment per site:
     atom:    1    charge:   13.5371    magn:    4.2557    constr:    0.0000
     atom:    2    charge:   13.5366    magn:    4.2574    constr:    0.0000
     atom:    3    charge:   13.5369    magn:   -4.2567    constr:    0.0000
     atom:    4    charge:   13.5369    magn:   -4.2567    constr:    0.0000
     atom:    5    charge:   13.5366    magn:    4.2577    constr:    0.0000
     atom:    6    charge:   13.5372    magn:    4.2561    constr:    0.0000
     atom:    7    charge:   13.5369    magn:   -4.2567    constr:    0.0000
     atom:    8    charge:   13.5369    magn:   -4.2567    constr:    0.0000
     atom:    9    charge:    9.0940    magn:   -0.0052    constr:    0.0000
     atom:   10    charge:    9.0939    magn:   -0.0058    constr:    0.0000
     atom:   11    charge:    9.0940    magn:    0.0055    constr:    0.0000
     atom:   12    charge:    9.0940    magn:    0.0055    constr:    0.0000
     atom:   13    charge:    9.0938    magn:   -0.0052    constr:    0.0000
     atom:   14    charge:    9.0939    magn:   -0.0057    constr:    0.0000
     atom:   15    charge:    9.0939    magn:    0.0055    constr:    0.0000
     atom:   16    charge:    9.0939    magn:    0.0055    constr:    0.0000
     atom:   17    charge:    9.0939    magn:   -0.0057    constr:    0.0000
     atom:   18    charge:    9.0938    magn:   -0.0052    constr:    0.0000
     atom:   19    charge:    9.0940    magn:    0.0055    constr:    0.0000
     atom:   20    charge:    9.0940    magn:    0.0055    constr:    0.0000
     atom:   21    charge:    9.0940    magn:   -0.0052    constr:    0.0000
     atom:   22    charge:    9.0939    magn:   -0.0058    constr:    0.0000
     atom:   23    charge:    9.0939    magn:    0.0055    constr:    0.0000
     atom:   24    charge:    9.0939    magn:    0.0055    constr:    0.0000

     End of self-consistent calculation
 --- enter write_ns ---
 LDA+U parameters:
U(  1) =   3.1200   J(  1) =   0.7000   B(  1) =   0.0803
U(  2) =   3.1200   J(  2) =   0.7000   B(  2) =   0.0803
atom    1   Tr[ns(na)] (up, down, total) =   4.97018  0.72164  5.69182
   spin  1
    eigenvalues:
  0.984  0.993  0.994  0.997  1.001
    eigenvectors:
  0.005  0.000  0.000  0.994  0.000
  0.000  0.500  0.500  0.000  0.000
  0.000  0.500  0.500  0.000  0.000
  0.000  0.000  0.000  0.000  1.000
  0.995  0.000  0.000  0.005  0.000
    occupations:
  0.997  0.000  0.000  0.000 -0.001
  0.000  0.994 -0.000 -0.000 -0.000
  0.000 -0.000  0.994  0.000 -0.000
  0.000 -0.000  0.000  1.001 -0.000
 -0.001 -0.000 -0.000 -0.000  0.985
   spin  2
    eigenvalues:
  0.072  0.132  0.139  0.140  0.239
    eigenvectors:
  0.000  0.973  0.001  0.000  0.025
  0.000  0.001  0.499  0.500  0.000
  0.000  0.001  0.499  0.500  0.000
  1.000  0.000  0.000  0.000  0.000
  0.000  0.025  0.000  0.000  0.975
    occupations:
  0.135 -0.000 -0.000  0.000 -0.017
 -0.000  0.139 -0.000 -0.000  0.000
 -0.000 -0.000  0.139  0.000  0.000
  0.000 -0.000  0.000  0.072 -0.000
 -0.017  0.000  0.000 -0.000  0.237
atomic mag. moment =     4.248548
atom    2   Tr[ns(na)] (up, down, total) =   4.97038  0.72025  5.69063
   spin  1
    eigenvalues:
  0.985  0.993  0.994  0.997  1.001
    eigenvectors:
  0.006  0.001  0.000  0.994  0.000
  0.000  0.500  0.500  0.000  0.000
  0.000  0.500  0.500  0.000  0.000
  0.000  0.000  0.000  0.000  1.000
  0.994  0.000  0.000  0.006  0.000
    occupations:
  0.997  0.000  0.000  0.000 -0.001
  0.000  0.994 -0.000 -0.000 -0.000
  0.000 -0.000  0.994  0.000 -0.000
  0.000 -0.000  0.000  1.001 -0.000
 -0.001 -0.000 -0.000 -0.000  0.985
   spin  2
    eigenvalues:
  0.072  0.131  0.139  0.140  0.238
    eigenvectors:
  0.000  0.973  0.002  0.000  0.026
  0.000  0.001  0.499  0.500  0.000
  0.000  0.001  0.499  0.500  0.000
  1.000  0.000  0.000  0.000  0.000
  0.000  0.026  0.000  0.000  0.974
    occupations:
  0.134 -0.000 -0.000  0.000 -0.017
 -0.000  0.140 -0.000 -0.000  0.000
 -0.000 -0.000  0.140  0.000  0.000
  0.000 -0.000  0.000  0.072 -0.000
 -0.017  0.000  0.000 -0.000  0.235
atomic mag. moment =     4.250136
atom    3   Tr[ns(na)] (up, down, total) =   0.72090  4.97032  5.69123
   spin  1
    eigenvalues:
  0.072  0.131  0.139  0.140  0.239
    eigenvectors:
  0.000  0.973  0.001  0.000  0.026
  0.000  0.001  0.500  0.499  0.000
  0.000  0.001  0.499  0.501  0.000
  1.000  0.000  0.000  0.000  0.000
  0.000  0.026  0.000  0.000  0.974
    occupations:
  0.134 -0.000 -0.000 -0.000 -0.017
 -0.000  0.140 -0.000 -0.000  0.000
 -0.000 -0.000  0.140  0.000  0.000
 -0.000 -0.000  0.000  0.072 -0.000
 -0.017  0.000  0.000 -0.000  0.236
   spin  2
    eigenvalues:
  0.985  0.993  0.994  0.997  1.001
    eigenvectors:
  0.005  0.000  0.000  0.994  0.000
  0.000  0.500  0.500  0.000  0.000
  0.000  0.500  0.500  0.000  0.000
  0.000  0.000  0.000  0.000  1.000
  0.995  0.000  0.000  0.005  0.000
    occupations:
  0.997  0.000  0.000 -0.000 -0.001
  0.000  0.994 -0.000 -0.000 -0.000
  0.000 -0.000  0.994  0.000 -0.000
 -0.000 -0.000  0.000  1.001 -0.000
 -0.001 -0.000 -0.000 -0.000  0.985
atomic mag. moment =    -4.249419
atom    4   Tr[ns(na)] (up, down, total) =   0.72090  4.97032  5.69123
   spin  1
    eigenvalues:
  0.072  0.131  0.139  0.140  0.239
    eigenvectors:
  0.000  0.973  0.001  0.000  0.026
  0.000  0.001  0.499  0.501  0.000
  0.000  0.001  0.500  0.499  0.000
  1.000  0.000  0.000  0.000  0.000
  0.000  0.026  0.000  0.000  0.974
    occupations:
  0.134 -0.000 -0.000  0.000 -0.017
 -0.000  0.140 -0.000 -0.000  0.000
 -0.000 -0.000  0.140  0.000  0.000
  0.000 -0.000  0.000  0.072  0.000
 -0.017  0.000  0.000  0.000  0.236
   spin  2
    eigenvalues:
  0.985  0.993  0.994  0.997  1.001
    eigenvectors:
  0.005  0.000  0.000  0.994  0.000
  0.000  0.500  0.500  0.000  0.000
  0.000  0.500  0.500  0.000  0.000
  0.000  0.000  0.000  0.000  1.000
  0.995  0.000  0.000  0.005  0.000
    occupations:
  0.997  0.000  0.000  0.000 -0.001
  0.000  0.994 -0.000 -0.000 -0.000
  0.000 -0.000  0.994  0.000 -0.000
  0.000 -0.000  0.000  1.001  0.000
 -0.001 -0.000 -0.000  0.000  0.985
atomic mag. moment =    -4.249419
atom    5   Tr[ns(na)] (up, down, total) =   4.97044  0.72002  5.69046
   spin  1
    eigenvalues:
  0.985  0.993  0.994  0.997  1.001
    eigenvectors:
  0.005  0.001  0.000  0.994  0.000
  0.000  0.500  0.500  0.000  0.000
  0.000  0.500  0.500  0.000  0.000
  0.000  0.000  0.000  0.000  1.000
  0.995  0.000  0.000  0.005  0.000
    occupations:
  0.997  0.000  0.000  0.000 -0.001
  0.000  0.994 -0.000 -0.000 -0.000
  0.000 -0.000  0.994  0.000 -0.000
  0.000 -0.000  0.000  1.001 -0.000
 -0.001 -0.000 -0.000 -0.000  0.985
   spin  2
    eigenvalues:
  0.072  0.131  0.139  0.140  0.238
    eigenvectors:
  0.000  0.973  0.001  0.000  0.026
  0.000  0.001  0.499  0.500  0.000
  0.000  0.001  0.499  0.500  0.000
  1.000  0.000  0.000  0.000  0.000
  0.000  0.026  0.000  0.000  0.974
    occupations:
  0.134 -0.000 -0.000  0.000 -0.017
 -0.000  0.140 -0.001 -0.000  0.000
 -0.000 -0.001  0.140  0.000  0.000
  0.000 -0.000  0.000  0.072 -0.000
 -0.017  0.000  0.000 -0.000  0.235
atomic mag. moment =     4.250416
atom    6   Tr[ns(na)] (up, down, total) =   4.97027  0.72145  5.69172
   spin  1
    eigenvalues:
  0.985  0.993  0.994  0.997  1.001
    eigenvectors:
  0.005  0.000  0.000  0.994  0.000
  0.000  0.500  0.500  0.000  0.000
  0.000  0.500  0.500  0.000  0.000
  0.000  0.000  0.000  0.000  1.000
  0.995  0.000  0.000  0.005  0.000
    occupations:
  0.997  0.000  0.000  0.000 -0.001
  0.000  0.994 -0.000 -0.000 -0.000
  0.000 -0.000  0.994  0.000 -0.000
  0.000 -0.000  0.000  1.001 -0.000
 -0.001 -0.000 -0.000 -0.000  0.985
   spin  2
    eigenvalues:
  0.072  0.132  0.139  0.140  0.239
    eigenvectors:
  0.000  0.973  0.001  0.000  0.026
  0.000  0.000  0.500  0.500  0.000
  0.000  0.000  0.500  0.500  0.000
  1.000  0.000  0.000  0.000  0.000
  0.000  0.026  0.000  0.000  0.974
    occupations:
  0.135 -0.000 -0.000  0.000 -0.017
 -0.000  0.140 -0.000 -0.000  0.000
 -0.000 -0.000  0.140  0.000  0.000
  0.000 -0.000  0.000  0.072 -0.000
 -0.017  0.000  0.000 -0.000  0.236
atomic mag. moment =     4.248822
atom    7   Tr[ns(na)] (up, down, total) =   0.72090  4.97032  5.69123
   spin  1
    eigenvalues:
  0.072  0.131  0.139  0.140  0.239
    eigenvectors:
  0.000  0.973  0.001  0.000  0.026
  0.000  0.001  0.499  0.501  0.000
  0.000  0.001  0.500  0.499  0.000
  1.000  0.000  0.000  0.000  0.000
  0.000  0.026  0.000  0.000  0.974
    occupations:
  0.134 -0.000 -0.000  0.000 -0.017
 -0.000  0.140 -0.000 -0.000  0.000
 -0.000 -0.000  0.140  0.000  0.000
  0.000 -0.000  0.000  0.072  0.000
 -0.017  0.000  0.000  0.000  0.236
   spin  2
    eigenvalues:
  0.985  0.993  0.994  0.997  1.001
    eigenvectors:
  0.005  0.000  0.000  0.994  0.000
  0.000  0.500  0.500  0.000  0.000
  0.000  0.500  0.500  0.000  0.000
  0.000  0.000  0.000  0.000  1.000
  0.995  0.000  0.000  0.005  0.000
    occupations:
  0.997  0.000  0.000  0.000 -0.001
  0.000  0.994 -0.000 -0.000 -0.000
  0.000 -0.000  0.994  0.000 -0.000
  0.000 -0.000  0.000  1.001  0.000
 -0.001 -0.000 -0.000  0.000  0.985
atomic mag. moment =    -4.249419
atom    8   Tr[ns(na)] (up, down, total) =   0.72090  4.97032  5.69123
   spin  1
    eigenvalues:
  0.072  0.131  0.139  0.140  0.239
    eigenvectors:
  0.000  0.973  0.001  0.000  0.026
  0.000  0.001  0.500  0.499  0.000
  0.000  0.001  0.499  0.501  0.000
  1.000  0.000  0.000  0.000  0.000
  0.000  0.026  0.000  0.000  0.974
    occupations:
  0.134 -0.000 -0.000 -0.000 -0.017
 -0.000  0.140 -0.000 -0.000  0.000
 -0.000 -0.000  0.140  0.000  0.000
 -0.000 -0.000  0.000  0.072 -0.000
 -0.017  0.000  0.000 -0.000  0.236
   spin  2
    eigenvalues:
  0.985  0.993  0.994  0.997  1.001
    eigenvectors:
  0.005  0.000  0.000  0.994  0.000
  0.000  0.500  0.500  0.000  0.000
  0.000  0.500  0.500  0.000  0.000
  0.000  0.000  0.000  0.000  1.000
  0.995  0.000  0.000  0.005  0.000
    occupations:
  0.997  0.000  0.000 -0.000 -0.001
  0.000  0.994 -0.000 -0.000 -0.000
  0.000 -0.000  0.994  0.000 -0.000
 -0.000 -0.000  0.000  1.001 -0.000
 -0.001 -0.000 -0.000 -0.000  0.985
atomic mag. moment =    -4.249419
N of occupied +U levels =   45.529541
 --- exit write_ns ---

     Number of k-points >= 100: set verbosity='high' to print the bands.

     the Fermi energy is    15.5911 ev

!    total energy              =  -14693.91503244 Ry
     Harris-Foulkes estimate   =  -14693.91501941 Ry
     estimated scf accuracy    <       0.00000095 Ry

     total all-electron energy =   -626921.510754 Ry

     The total energy is the sum of the following terms:

     one-electron contribution =    -698.36759728 Ry
     hartree contribution      =     651.63375479 Ry
     xc contribution           =    -738.17536761 Ry
     ewald contribution        =   -2207.56121140 Ry
     Hubbard energy            =       0.44684779 Ry
     one-center paw contrib.   =  -11701.89145874 Ry

     total magnetization       =     0.00 Bohr mag/cell
     absolute magnetization    =    36.62 Bohr mag/cell

     convergence has been achieved in  19 iterations

     Writing output data file mnau2.save/

     General routines

     Parallel routines

     Hubbard U routines

      57h

   This run was terminated on:   1:59:13  30Mar2019

   JOB DONE.