     Program PWSCF v.6.3MaX starts on 29Mar2019 at 11:54: 6

     R & G space division:  proc/nbgrp/npool/nimage =      32
     Waiting for input...
     Reading input from standard input

     Current dimensions of program PWSCF are:
     Max number of different atomic species (ntypx) = 10
     Max number of k-points (npk) =  40000
     Max angular momentum in pseudopotentials (lmaxx) =  3
     Message from routine read_upf::
     Pseudo file ./pseudo/Mn.pbe-spn-kjpaw_psl.0.3.1.UPF has been successfully fixed on the fly.
To avoid this message in the future you can permanently fix
 your pseudo files following instructions given in:
               file Mn.pbe-spn-kjpaw_psl.0.3.1.UPF: wavefunction(s)  3P 3D renormalized
     Message from routine read_upf::
     Pseudo file ./pseudo/Mn.pbe-spn-kjpaw_psl.0.3.1.UPF has been successfully fixed on the fly.
To avoid this message in the future you can permanently fix
 your pseudo files following instructions given in:
               file Mn.pbe-spn-kjpaw_psl.0.3.1.UPF: wavefunction(s)  3P 3D renormalized
     Message from routine read_upf::
     Pseudo file ./pseudo/Au.pbe-dn-kjpaw_psl.0.1.UPF has been successfully fixed on the fly.
To avoid this message in the future you can permanently fix
 your pseudo files following instructions given in:
               file Au.pbe-dn-kjpaw_psl.0.1.UPF: wavefunction(s)  6S 6P 5D renormalized

     bravais-lattice index     =            0
     lattice parameter (alat)  =      18.0125  a.u.
     unit-cell volume          =    2685.0513 (a.u.)^3
     number of atoms/cell      =           24
     number of atomic types    =            3
     number of electrons       =       296.00
     number of Kohn-Sham states=          178
     kinetic-energy cutoff     =      45.0000  Ry
     charge density cutoff     =     400.0000  Ry
     convergence threshold     =      1.0E-06
     mixing beta               =       0.1000
     number of iterations used =            8  plain     mixing
     Exchange-correlation      = SLA PW PBX PBC ( 1  4  3  4 0 0)

     celldm(1)=  18.012490  celldm(2)=   0.000000  celldm(3)=   0.000000
     celldm(4)=   0.000000  celldm(5)=   0.000000  celldm(6)=   0.000000

     crystal axes: (cart. coord. in units of alat)
               a(1) = (   0.707107  -0.707107   0.000000 )
               a(2) = (  -0.707107  -0.707107   0.000000 )
               a(3) = (   0.176777   0.176777  -0.459443 )

     reciprocal axes: (cart. coord. in units 2 pi/alat)
               b(1) = (  0.707107 -0.707107  0.000000 )
               b(2) = ( -0.707107 -0.707107 -0.544138 )
               b(3) = (  0.000000  0.000000 -2.176550 )

     PseudoPot. # 1 for Mn read from file:
     ./pseudo/Mn.pbe-spn-kjpaw_psl.0.3.1.UPF
     MD5 check sum: 7eef95dd2aae66803482eea66ebeebf1
     Pseudo is Projector augmented-wave + core cor, Zval = 15.0
     Generated using "atomic" code by A. Dal Corso v.5.0.99 svn rev. 10869
     Shape of augmentation charge: PSQ
     Using radial grid of 1187 points,  6 beta functions with:
                l(1) =   0
                l(2) =   0
                l(3) =   1
                l(4) =   1
                l(5) =   2
                l(6) =   2
     Q(r) pseudized with 0 coefficients

     PseudoPot. # 2 for Mn read from file:
     ./pseudo/Mn.pbe-spn-kjpaw_psl.0.3.1.UPF
     MD5 check sum: 7eef95dd2aae66803482eea66ebeebf1
     Pseudo is Projector augmented-wave + core cor, Zval = 15.0
     Generated using "atomic" code by A. Dal Corso v.5.0.99 svn rev. 10869
     Shape of augmentation charge: PSQ
     Using radial grid of 1187 points,  6 beta functions with:
                l(1) =   0
                l(2) =   0
                l(3) =   1
                l(4) =   1
                l(5) =   2
                l(6) =   2
     Q(r) pseudized with 0 coefficients

     PseudoPot. # 3 for Au read from file:
     ./pseudo/Au.pbe-dn-kjpaw_psl.0.1.UPF
     MD5 check sum: 5c9b92683623e7ae2ab3f8e525febab6
     Pseudo is Projector augmented-wave + core cor, Zval = 11.0
     Generated using "atomic" code by A. Dal Corso v.5.0.2 svn rev. 9415
     Shape of augmentation charge: PSQ
     Using radial grid of 1279 points,  6 beta functions with:
                l(1) =   0
                l(2) =   0
                l(3) =   1
                l(4) =   1
                l(5) =   2
                l(6) =   2
     Q(r) pseudized with 0 coefficients

     atomic species   valence    mass     pseudopotential
        Mn1           15.00    54.93800     Mn( 1.00)
        Mn2           15.00    54.93800     Mn( 1.00)
        Au            11.00   196.96600     Au( 1.00)

     Starting magnetic structure
     atomic species   magnetization
        Mn1          1.000
        Mn2         -1.000
        Au           0.000

     Full LDA+U calculation (l_max = 2) with parameters (eV):
     U(  1) =   3.1200   J(  1) =   0.7000   B(  1) =   0.0803
     U(  2) =   3.1200   J(  2) =   0.7000   B(  2) =   0.0803

      2 Sym. Ops., with inversion, found ( 1 have fractional translation)

   Cartesian axes

     site n.     atom                  positions (alat units)
         1           Mn1 tau(   1) = (   0.3535534  -0.3535534   0.0000000  )
         2           Mn1 tau(   2) = (   0.0000000   0.0000000   0.0000000  )
         3           Mn2 tau(   3) = (   0.0000000  -0.3535534   0.0000000  )
         4           Mn1 tau(   4) = (   0.3535534  -0.7071068   0.0000000  )
         5           Mn1 tau(   5) = (  -0.3535534  -0.3535534   0.0000000  )
         6           Mn2 tau(   6) = (   0.0000000  -0.7071068   0.0000000  )
         7           Mn1 tau(   7) = (  -0.3535534  -0.7071068   0.0000000  )
         8           Mn1 tau(   8) = (   0.0000000  -1.0606602   0.0000000  )
         9           Au  tau(   9) = (  -0.1767767  -0.1767767  -0.1470216  )
        10           Au  tau(  10) = (   0.1767767  -0.5303301  -0.1470216  )
        11           Au  tau(  11) = (  -0.1767767  -0.5303301  -0.1470216  )
        12           Au  tau(  12) = (   0.1767767  -0.8838835  -0.1470216  )
        13           Au  tau(  13) = (  -0.5303301  -0.5303301  -0.1470216  )
        14           Au  tau(  14) = (  -0.1767767  -0.8838835  -0.1470216  )
        15           Au  tau(  15) = (   0.5303301  -0.5303301  -0.1470216  )
        16           Au  tau(  16) = (   0.1767767  -0.1767767  -0.1470216  )
        17           Au  tau(  17) = (   0.3535534  -0.3535534  -0.3124210  )
        18           Au  tau(  18) = (   0.0000000   0.0000000  -0.3124210  )
        19           Au  tau(  19) = (   0.0000000  -0.3535534  -0.3124210  )
        20           Au  tau(  20) = (   0.3535534  -0.7071068  -0.3124210  )
        21           Au  tau(  21) = (  -0.3535534  -0.3535534  -0.3124210  )
        22           Au  tau(  22) = (  -0.0000000  -0.7071068  -0.3124210  )
        23           Au  tau(  23) = (  -0.3535534  -0.7071068  -0.3124210  )
        24           Au  tau(  24) = (   0.0000000  -1.0606602  -0.3124210  )

     number of k points=   260 (tetrahedron method)

     Number of k-points >= 100: set verbosity='high' to print them.

     Check: negative/imaginary core charge=   -0.000006    0.000000

     Initial potential from superposition of free atoms

     starting charge  295.99426, renormalised to  296.00000
     Number of +U iterations with fixed ns =  0
     Starting occupations:
 --- enter write_ns ---
 LDA+U parameters:
U(  1) =   3.1200   J(  1) =   0.7000   B(  1) =   0.0803
U(  2) =   3.1200   J(  2) =   0.7000   B(  2) =   0.0803
atom    1   Tr[ns(na)] (up, down, total) =   5.00000  0.00000  5.00000
   spin  1
    eigenvalues:
  1.000  1.000  1.000  1.000  1.000
    eigenvectors:
  1.000  0.000  0.000  0.000  0.000
  0.000  1.000  0.000  0.000  0.000
  0.000  0.000  1.000  0.000  0.000
  0.000  0.000  0.000  1.000  0.000
  0.000  0.000  0.000  0.000  1.000
    occupations:
  1.000  0.000  0.000  0.000  0.000
  0.000  1.000  0.000  0.000  0.000
  0.000  0.000  1.000  0.000  0.000
  0.000  0.000  0.000  1.000  0.000
  0.000  0.000  0.000  0.000  1.000
   spin  2
    eigenvalues:
  0.000  0.000  0.000  0.000  0.000
    eigenvectors:
  1.000  0.000  0.000  0.000  0.000
  0.000  1.000  0.000  0.000  0.000
  0.000  0.000  1.000  0.000  0.000
  0.000  0.000  0.000  1.000  0.000
  0.000  0.000  0.000  0.000  1.000
    occupations:
  0.000  0.000  0.000  0.000  0.000
  0.000  0.000  0.000  0.000  0.000
  0.000  0.000  0.000  0.000  0.000
  0.000  0.000  0.000  0.000  0.000
  0.000  0.000  0.000  0.000  0.000
atomic mag. moment =     5.000000
atom    2   Tr[ns(na)] (up, down, total) =   5.00000  0.00000  5.00000
   spin  1
    eigenvalues:
  1.000  1.000  1.000  1.000  1.000
    eigenvectors:
  1.000  0.000  0.000  0.000  0.000
  0.000  1.000  0.000  0.000  0.000
  0.000  0.000  1.000  0.000  0.000
  0.000  0.000  0.000  1.000  0.000
  0.000  0.000  0.000  0.000  1.000
    occupations:
  1.000  0.000  0.000  0.000  0.000
  0.000  1.000  0.000  0.000  0.000
  0.000  0.000  1.000  0.000  0.000
  0.000  0.000  0.000  1.000  0.000
  0.000  0.000  0.000  0.000  1.000
   spin  2
    eigenvalues:
  0.000  0.000  0.000  0.000  0.000
    eigenvectors:
  1.000  0.000  0.000  0.000  0.000
  0.000  1.000  0.000  0.000  0.000
  0.000  0.000  1.000  0.000  0.000
  0.000  0.000  0.000  1.000  0.000
  0.000  0.000  0.000  0.000  1.000
    occupations:
  0.000  0.000  0.000  0.000  0.000
  0.000  0.000  0.000  0.000  0.000
  0.000  0.000  0.000  0.000  0.000
  0.000  0.000  0.000  0.000  0.000
  0.000  0.000  0.000  0.000  0.000
atomic mag. moment =     5.000000
atom    3   Tr[ns(na)] (up, down, total) =   0.00000  5.00000  5.00000
   spin  1
    eigenvalues:
  0.000  0.000  0.000  0.000  0.000
    eigenvectors:
  1.000  0.000  0.000  0.000  0.000
  0.000  1.000  0.000  0.000  0.000
  0.000  0.000  1.000  0.000  0.000
  0.000  0.000  0.000  1.000  0.000
  0.000  0.000  0.000  0.000  1.000
    occupations:
  0.000  0.000  0.000  0.000  0.000
  0.000  0.000  0.000  0.000  0.000
  0.000  0.000  0.000  0.000  0.000
  0.000  0.000  0.000  0.000  0.000
  0.000  0.000  0.000  0.000  0.000
   spin  2
    eigenvalues:
  1.000  1.000  1.000  1.000  1.000
    eigenvectors:
  1.000  0.000  0.000  0.000  0.000
  0.000  1.000  0.000  0.000  0.000
  0.000  0.000  1.000  0.000  0.000
  0.000  0.000  0.000  1.000  0.000
  0.000  0.000  0.000  0.000  1.000
    occupations:
  1.000  0.000  0.000  0.000  0.000
  0.000  1.000  0.000  0.000  0.000
  0.000  0.000  1.000  0.000  0.000
  0.000  0.000  0.000  1.000  0.000
  0.000  0.000  0.000  0.000  1.000
atomic mag. moment =    -5.000000
atom    4   Tr[ns(na)] (up, down, total) =   5.00000  0.00000  5.00000
   spin  1
    eigenvalues:
  1.000  1.000  1.000  1.000  1.000
    eigenvectors:
  1.000  0.000  0.000  0.000  0.000
  0.000  1.000  0.000  0.000  0.000
  0.000  0.000  1.000  0.000  0.000
  0.000  0.000  0.000  1.000  0.000
  0.000  0.000  0.000  0.000  1.000
    occupations:
  1.000  0.000  0.000  0.000  0.000
  0.000  1.000  0.000  0.000  0.000
  0.000  0.000  1.000  0.000  0.000
  0.000  0.000  0.000  1.000  0.000
  0.000  0.000  0.000  0.000  1.000
   spin  2
    eigenvalues:
  0.000  0.000  0.000  0.000  0.000
[...]
  0.991  0.009  0.000  0.000  0.000
  0.000  0.001  0.000  0.001  0.999
    occupations:
  0.050  0.000 -0.000 -0.001 -0.001
  0.000  0.055 -0.001  0.000 -0.000
 -0.000 -0.001  0.055 -0.000  0.000
 -0.001  0.000 -0.000  0.040 -0.000
 -0.001 -0.000  0.000 -0.000  0.072
atomic mag. moment =     4.742332
atom    5   Tr[ns(na)] (up, down, total) =   5.01477  0.27243  5.28720
   spin  1
    eigenvalues:
  1.003  1.003  1.003  1.003  1.004
    eigenvectors:
  0.000  0.000  0.000  0.992  0.007
  0.000  0.883  0.116  0.000  0.000
  0.001  0.117  0.883  0.000  0.000
  0.000  0.000  0.000  0.007  0.992
  0.999  0.000  0.001  0.000  0.000
    occupations:
  1.003  0.000 -0.000  0.000 -0.000
  0.000  1.003  0.000  0.000  0.000
 -0.000  0.000  1.003 -0.000  0.000
  0.000  0.000 -0.000  1.004  0.000
 -0.000  0.000  0.000  0.000  1.003
   spin  2
    eigenvalues:
  0.040  0.050  0.055  0.056  0.072
    eigenvectors:
  0.009  0.983  0.000  0.007  0.001
  0.000  0.006  0.329  0.665  0.000
  0.000  0.001  0.671  0.328  0.000
  0.991  0.009  0.000  0.000  0.000
  0.000  0.001  0.000  0.001  0.999
    occupations:
  0.050  0.000 -0.000 -0.001 -0.001
  0.000  0.055 -0.001  0.000 -0.000
 -0.000 -0.001  0.055 -0.000  0.000
 -0.001  0.000 -0.000  0.040 -0.000
 -0.001 -0.000  0.000 -0.000  0.072
atomic mag. moment =     4.742332
atom    6   Tr[ns(na)] (up, down, total) =   0.27660  5.01486  5.29146
   spin  1
    eigenvalues:
  0.042  0.053  0.055  0.056  0.072
    eigenvectors:
  0.006  0.975  0.000  0.019  0.000
  0.000  0.019  0.071  0.910  0.001
  0.000  0.001  0.926  0.069  0.004
  0.994  0.006  0.000  0.000  0.000
  0.000  0.000  0.003  0.002  0.995
    occupations:
  0.053  0.000  0.000 -0.001  0.000
  0.000  0.056  0.000  0.000  0.000
  0.000  0.000  0.055  0.000  0.001
 -0.001  0.000  0.000  0.042  0.000
  0.000  0.000  0.001  0.000  0.071
   spin  2
    eigenvalues:
  1.003  1.003  1.003  1.003  1.004
    eigenvectors:
  0.000  0.001  0.001  0.979  0.019
  0.000  0.838  0.162  0.000  0.000
  0.001  0.161  0.837  0.001  0.000
  0.000  0.000  0.000  0.019  0.981
  0.999  0.000  0.001  0.000  0.000
    occupations:
  1.003 -0.000  0.000  0.000 -0.000
 -0.000  1.003  0.000  0.000 -0.000
  0.000  0.000  1.003  0.000  0.000
  0.000  0.000  0.000  1.004  0.000
 -0.000 -0.000  0.000  0.000  1.003
atomic mag. moment =    -4.738261
atom    7   Tr[ns(na)] (up, down, total) =   5.01488  0.27466  5.28954
   spin  1
    eigenvalues:
  1.003  1.003  1.003  1.003  1.004
    eigenvectors:
  0.000  0.000  0.000  0.999  0.001
  0.000  0.819  0.181  0.000  0.000
  0.001  0.180  0.819  0.000  0.000
  0.000  0.000  0.000  0.001  0.999
  0.999  0.001  0.000  0.000  0.000
    occupations:
  1.003  0.000 -0.000  0.000  0.000
  0.000  1.003 -0.000  0.000  0.000
 -0.000 -0.000  1.003  0.000  0.000
  0.000  0.000  0.000  1.004 -0.000
  0.000  0.000  0.000 -0.000  1.003
   spin  2
    eigenvalues:
  0.040  0.051  0.054  0.056  0.073
    eigenvectors:
  0.006  0.958  0.009  0.026  0.001
  0.000  0.034  0.398  0.566  0.001
  0.000  0.001  0.592  0.404  0.002
  0.994  0.006  0.000  0.000  0.000
  0.000  0.001  0.000  0.004  0.995
    occupations:
  0.051  0.001  0.000 -0.001  0.001
  0.001  0.055  0.001 -0.000  0.001
  0.000  0.001  0.055  0.000  0.001
 -0.001 -0.000  0.000  0.040 -0.000
  0.001  0.001  0.001 -0.000  0.073
atomic mag. moment =     4.740214
atom    8   Tr[ns(na)] (up, down, total) =   5.01489  0.27251  5.28740
   spin  1
    eigenvalues:
  1.003  1.003  1.003  1.003  1.004
    eigenvectors:
  0.000  0.000  0.001  0.997  0.002
  0.000  0.065  0.934  0.001  0.000
  0.003  0.932  0.065  0.000  0.000
  0.000  0.000  0.000  0.002  0.997
  0.996  0.002  0.001  0.000  0.000
    occupations:
  1.003 -0.000 -0.000 -0.000  0.000
 -0.000  1.003  0.000 -0.000 -0.000
 -0.000  0.000  1.003  0.000 -0.000
 -0.000 -0.000  0.000  1.004 -0.000
  0.000 -0.000 -0.000 -0.000  1.003
   spin  2
    eigenvalues:
  0.040  0.049  0.054  0.055  0.074
    eigenvectors:
  0.009  0.981  0.005  0.005  0.000
  0.000  0.004  0.962  0.034  0.000
  0.000  0.007  0.032  0.961  0.000
  0.991  0.008  0.000  0.000  0.000
  0.000  0.000  0.000  0.000  1.000
    occupations:
  0.049 -0.000  0.000  0.001  0.000
 -0.000  0.054  0.000 -0.000  0.000
  0.000  0.000  0.055  0.000 -0.000
  0.001 -0.000  0.000  0.040 -0.000
  0.000  0.000 -0.000 -0.000  0.074
atomic mag. moment =     4.742376
N of occupied +U levels =   42.311183
 --- exit write_ns ---

     total energy              =  -14679.17786247 Ry
     Harris-Foulkes estimate   =  -14669.79595652 Ry
     estimated scf accuracy    <      21.27110283 Ry

     total magnetization       =    20.96 Bohr mag/cell
     absolute magnetization    =    43.55 Bohr mag/cell

     iteration #  2     ecut=    45.00 Ry     beta= 0.10
     Davidson diagonalization with overlap
     ethr =  7.19E-03,  avg # of iterations =  1.0

[...]

     iteration # 12     ecut=    45.00 Ry     beta= 0.10
     Davidson diagonalization with overlap
     c_bands:  1 eigenvalues not converged
     ethr =  1.28E-06,  avg # of iterations =  2.3

[...]

     total energy              =  -14693.95743894 Ry
     Harris-Foulkes estimate   =  -14693.95743475 Ry
     estimated scf accuracy    <       0.00000278 Ry

[...]

     iteration # 20     ecut=    45.00 Ry     beta= 0.10
     Davidson diagonalization with overlap
     ethr =  9.39E-10,  avg # of iterations =  2.2

     Magnetic moment per site:
     atom:    1    charge:   13.5453    magn:    4.2042    constr:    0.0000
     atom:    2    charge:   13.5460    magn:    4.1859    constr:    0.0000
     atom:    3    charge:   13.5312    magn:   -4.2782    constr:    0.0000
     atom:    4    charge:   13.5435    magn:    4.1951    constr:    0.0000
     atom:    5    charge:   13.5435    magn:    4.1951    constr:    0.0000
     atom:    6    charge:   13.5312    magn:   -4.2782    constr:    0.0000
     atom:    7    charge:   13.5453    magn:    4.2042    constr:    0.0000
     atom:    8    charge:   13.5460    magn:    4.1859    constr:    0.0000
     atom:    9    charge:    9.0908    magn:    0.0161    constr:    0.0000
     atom:   10    charge:    9.0906    magn:   -0.0192    constr:    0.0000
     atom:   11    charge:    9.0912    magn:   -0.0042    constr:    0.0000
     atom:   12    charge:    9.0891    magn:    0.0127    constr:    0.0000
     atom:   13    charge:    9.0896    magn:    0.0395    constr:    0.0000
     atom:   14    charge:    9.0913    magn:    0.0183    constr:    0.0000
     atom:   15    charge:    9.0910    magn:    0.0430    constr:    0.0000
     atom:   16    charge:    9.0906    magn:    0.0009    constr:    0.0000
     atom:   17    charge:    9.0912    magn:   -0.0042    constr:    0.0000
     atom:   18    charge:    9.0891    magn:    0.0127    constr:    0.0000
     atom:   19    charge:    9.0906    magn:   -0.0192    constr:    0.0000
     atom:   20    charge:    9.0908    magn:    0.0161    constr:    0.0000
     atom:   21    charge:    9.0910    magn:    0.0430    constr:    0.0000
     atom:   22    charge:    9.0906    magn:    0.0009    constr:    0.0000
     atom:   23    charge:    9.0913    magn:    0.0183    constr:    0.0000
     atom:   24    charge:    9.0896    magn:    0.0395    constr:    0.0000

     End of self-consistent calculation
 --- enter write_ns ---
 LDA+U parameters:
U(  1) =   3.1200   J(  1) =   0.7000   B(  1) =   0.0803
U(  2) =   3.1200   J(  2) =   0.7000   B(  2) =   0.0803
atom    1   Tr[ns(na)] (up, down, total) =   4.96739  0.76418  5.73157
   spin  1
    eigenvalues:
  0.983  0.992  0.994  0.996  1.002
    eigenvectors:
  0.000  0.017  0.007  0.974  0.002
  0.001  0.544  0.431  0.023  0.001
  0.003  0.434  0.562  0.001  0.000
  0.000  0.000  0.000  0.003  0.997
  0.996  0.004  0.000  0.000  0.000
    occupations:
  0.996 -0.001 -0.000  0.000  0.000
 -0.001  0.993 -0.001 -0.000  0.000
 -0.000 -0.001  0.993 -0.000  0.000
  0.000 -0.000 -0.000  1.002  0.000
  0.000  0.000  0.000  0.000  0.983
   spin  2
    eigenvalues:
  0.068  0.121  0.152  0.159  0.265
    eigenvectors:
  0.000  0.990  0.006  0.002  0.002
  0.000  0.004  0.884  0.112  0.000
  0.000  0.004  0.108  0.878  0.010
  1.000  0.000  0.000  0.000  0.000
  0.000  0.002  0.001  0.008  0.988
    occupations:
  0.122 -0.002 -0.002 -0.000  0.006
 -0.002  0.152 -0.002 -0.001  0.001
 -0.002 -0.002  0.159 -0.001  0.011
 -0.000 -0.001 -0.001  0.068  0.000
  0.006  0.001  0.011  0.000  0.263
atomic mag. moment =     4.203213
atom    2   Tr[ns(na)] (up, down, total) =   4.96500  0.77851  5.74351
   spin  1
    eigenvalues:
  0.982  0.992  0.993  0.997  1.001
    eigenvectors:
  0.000  0.002  0.000  0.994  0.003
  0.000  0.459  0.538  0.002  0.001
  0.000  0.539  0.461  0.000  0.000
  0.000  0.000  0.000  0.003  0.996
  1.000  0.000  0.000  0.000  0.000
    occupations:
  0.997  0.000 -0.000 -0.000  0.000
  0.000  0.992  0.000  0.000  0.000
 -0.000  0.000  0.992 -0.000 -0.000
 -0.000  0.000 -0.000  1.001  0.000
  0.000  0.000 -0.000  0.000  0.982
   spin  2
    eigenvalues:
  0.067  0.142  0.146  0.158  0.264
    eigenvectors:
  0.000  0.981  0.004  0.014  0.001
  0.001  0.010  0.054  0.935  0.000
  0.000  0.009  0.933  0.050  0.008
  0.999  0.000  0.000  0.001  0.000
  0.000  0.001  0.008  0.000  0.991
    occupations:
  0.143  0.002  0.001 -0.000 -0.004
  0.002  0.157  0.002  0.003  0.002
  0.001  0.002  0.148 -0.000 -0.010
 -0.000  0.003 -0.000  0.068  0.001
 -0.004  0.002 -0.010  0.001  0.263
atomic mag. moment =     4.186494
atom    3   Tr[ns(na)] (up, down, total) =   0.70455  4.97233  5.67688
   spin  1
    eigenvalues:
  0.071  0.121  0.143  0.145  0.225
    eigenvectors:
  0.000  0.997  0.002  0.000  0.001
  0.001  0.000  0.002  0.994  0.003
  0.000  0.003  0.944  0.001  0.052
  0.999  0.000  0.000  0.001  0.000
  0.000  0.000  0.051  0.004  0.945
    occupations:
  0.122  0.000  0.002  0.001  0.002
  0.000  0.145  0.001 -0.002  0.004
  0.002  0.001  0.147  0.000  0.018
  0.001 -0.002  0.000  0.071 -0.001
  0.002  0.004  0.018 -0.001  0.220
   spin  2
    eigenvalues:
  0.987  0.993  0.994  0.997  1.002
    eigenvectors:
  0.000  0.003  0.028  0.967  0.003
  0.000  0.524  0.452  0.023  0.001
  0.003  0.472  0.518  0.007  0.000
  0.000  0.000  0.000  0.003  0.997
  0.997  0.001  0.002  0.000  0.000
    occupations:
  0.997 -0.001 -0.000  0.000  0.000
 -0.001  0.993  0.000 -0.000 -0.000
 -0.000  0.000  0.993 -0.000 -0.000
  0.000 -0.000 -0.000  1.002  0.000
  0.000 -0.000 -0.000  0.000  0.987
atomic mag. moment =    -4.267779
atom    4   Tr[ns(na)] (up, down, total) =   4.96571  0.76615  5.73186
   spin  1
    eigenvalues:
  0.983  0.991  0.993  0.997  1.002
    eigenvectors:
  0.000  0.002  0.002  0.992  0.004
  0.000  0.510  0.489  0.000  0.001
  0.003  0.486  0.507  0.004  0.000
  0.000  0.001  0.001  0.004  0.995
  0.997  0.002  0.001  0.000  0.000
    occupations:
  0.997 -0.000  0.000  0.000  0.000
 -0.000  0.992  0.001 -0.000  0.000
  0.000  0.001  0.992  0.000  0.001
  0.000 -0.000  0.000  1.002 -0.000
  0.000  0.000  0.001 -0.000  0.983
   spin  2
    eigenvalues:
  0.068  0.135  0.146  0.157  0.260
    eigenvectors:
  0.000  0.935  0.051  0.006  0.008
  0.001  0.034  0.843  0.121  0.000
  0.000  0.020  0.105  0.870  0.005
  0.999  0.000  0.000  0.000  0.000
  0.000  0.011  0.001  0.003  0.986
    occupations:
  0.137 -0.002  0.002 -0.000 -0.012
 -0.002  0.147  0.004 -0.002 -0.003
  0.002  0.004  0.156  0.000  0.008
 -0.000 -0.002  0.000  0.068 -0.000
 -0.012 -0.003  0.008 -0.000  0.258
atomic mag. moment =     4.199554
atom    5   Tr[ns(na)] (up, down, total) =   4.96571  0.76615  5.73186
   spin  1
    eigenvalues:
  0.983  0.991  0.993  0.997  1.002
    eigenvectors:
  0.000  0.002  0.002  0.992  0.004
  0.000  0.510  0.489  0.000  0.001
  0.003  0.486  0.507  0.004  0.000
  0.000  0.001  0.001  0.004  0.995
  0.997  0.002  0.001  0.000  0.000
    occupations:
  0.997 -0.000  0.000  0.000  0.000
 -0.000  0.992  0.001 -0.000  0.000
  0.000  0.001  0.992  0.000  0.001
  0.000 -0.000  0.000  1.002 -0.000
  0.000  0.000  0.001 -0.000  0.983
   spin  2
    eigenvalues:
  0.068  0.135  0.146  0.157  0.260
    eigenvectors:
  0.000  0.935  0.051  0.006  0.008
  0.001  0.034  0.843  0.121  0.000
  0.000  0.020  0.105  0.870  0.005
  0.999  0.000  0.000  0.000  0.000
  0.000  0.011  0.001  0.003  0.986
    occupations:
  0.137 -0.002  0.002 -0.000 -0.012
 -0.002  0.147  0.004 -0.002 -0.003
  0.002  0.004  0.156  0.000  0.008
 -0.000 -0.002  0.000  0.068 -0.000
 -0.012 -0.003  0.008 -0.000  0.258
atomic mag. moment =     4.199554
atom    6   Tr[ns(na)] (up, down, total) =   0.70455  4.97233  5.67688
   spin  1
    eigenvalues:
  0.071  0.121  0.143  0.145  0.225
    eigenvectors:
  0.000  0.997  0.002  0.000  0.001
  0.001  0.000  0.002  0.994  0.003
  0.000  0.003  0.944  0.001  0.052
  0.999  0.000  0.000  0.001  0.000
  0.000  0.000  0.051  0.004  0.945
    occupations:
  0.122  0.000  0.002  0.001  0.002
  0.000  0.145  0.001 -0.002  0.004
  0.002  0.001  0.147  0.000  0.018
  0.001 -0.002  0.000  0.071 -0.001
  0.002  0.004  0.018 -0.001  0.220
   spin  2
    eigenvalues:
  0.987  0.993  0.994  0.997  1.002
    eigenvectors:
  0.000  0.003  0.028  0.967  0.003
  0.000  0.524  0.452  0.023  0.001
  0.003  0.472  0.518  0.007  0.000
  0.000  0.000  0.000  0.003  0.997
  0.997  0.001  0.002  0.000  0.000
    occupations:
  0.997 -0.001 -0.000  0.000  0.000
 -0.001  0.993  0.000 -0.000 -0.000
 -0.000  0.000  0.993 -0.000 -0.000
  0.000 -0.000 -0.000  1.002  0.000
  0.000 -0.000 -0.000  0.000  0.987
atomic mag. moment =    -4.267779
atom    7   Tr[ns(na)] (up, down, total) =   4.96739  0.76418  5.73157
   spin  1
    eigenvalues:
  0.983  0.992  0.994  0.996  1.002
    eigenvectors:
  0.000  0.017  0.007  0.974  0.002
  0.001  0.544  0.431  0.023  0.001
  0.003  0.434  0.562  0.001  0.000
  0.000  0.000  0.000  0.003  0.997
  0.996  0.004  0.000  0.000  0.000
    occupations:
  0.996 -0.001 -0.000  0.000  0.000
 -0.001  0.993 -0.001 -0.000  0.000
 -0.000 -0.001  0.993 -0.000  0.000
  0.000 -0.000 -0.000  1.002  0.000
  0.000  0.000  0.000  0.000  0.983
   spin  2
    eigenvalues:
  0.068  0.121  0.152  0.159  0.265
    eigenvectors:
  0.000  0.990  0.006  0.002  0.002
  0.000  0.004  0.884  0.112  0.000
  0.000  0.004  0.108  0.878  0.010
  1.000  0.000  0.000  0.000  0.000
  0.000  0.002  0.001  0.008  0.988
    occupations:
  0.122 -0.002 -0.002 -0.000  0.006
 -0.002  0.152 -0.002 -0.001  0.001
 -0.002 -0.002  0.159 -0.001  0.011
 -0.000 -0.001 -0.001  0.068  0.000
  0.006  0.001  0.011  0.000  0.263
atomic mag. moment =     4.203213
atom    8   Tr[ns(na)] (up, down, total) =   4.96500  0.77851  5.74351
   spin  1
    eigenvalues:
  0.982  0.992  0.993  0.997  1.001
    eigenvectors:
  0.000  0.002  0.000  0.994  0.003
  0.000  0.459  0.538  0.002  0.001
  0.000  0.539  0.461  0.000  0.000
  0.000  0.000  0.000  0.003  0.996
  1.000  0.000  0.000  0.000  0.000
    occupations:
  0.997  0.000 -0.000 -0.000  0.000
  0.000  0.992  0.000  0.000  0.000
 -0.000  0.000  0.992 -0.000 -0.000
 -0.000  0.000 -0.000  1.001  0.000
  0.000  0.000 -0.000  0.000  0.982
   spin  2
    eigenvalues:
  0.067  0.142  0.146  0.158  0.264
    eigenvectors:
  0.000  0.981  0.004  0.014  0.001
  0.001  0.010  0.054  0.935  0.000
  0.000  0.009  0.933  0.050  0.008
  0.999  0.000  0.000  0.001  0.000
  0.000  0.001  0.008  0.000  0.991
    occupations:
  0.143  0.002  0.001 -0.000 -0.004
  0.002  0.157  0.002  0.003  0.002
  0.001  0.002  0.148 -0.000 -0.010
 -0.000  0.003 -0.000  0.068  0.001
 -0.004  0.002 -0.010  0.001  0.263
atomic mag. moment =     4.186494
N of occupied +U levels =   45.767634
 --- exit write_ns ---

     Number of k-points >= 100: set verbosity='high' to print the bands.

     the Fermi energy is    15.5559 ev

!    total energy              =  -14693.95745399 Ry
     Harris-Foulkes estimate   =  -14693.95743873 Ry
     estimated scf accuracy    <       0.00000100 Ry

     total all-electron energy =   -626921.553176 Ry

     The total energy is the sum of the following terms:

     one-electron contribution =    -698.55189640 Ry
     hartree contribution      =     651.65495548 Ry
     xc contribution           =    -738.09578436 Ry
     ewald contribution        =   -2207.56121140 Ry
     Hubbard energy            =       0.46153535 Ry
     one-center paw contrib.   =  -11701.86505266 Ry

     total magnetization       =    17.00 Bohr mag/cell
     absolute magnetization    =    36.81 Bohr mag/cell

     convergence has been achieved in  20 iterations

     Writing output data file mnau2.save/

     General routines

     Parallel routines

     Hubbard U routines

       2h

   This run was terminated on:  14:56:41  29Mar2019

   JOB DONE.