     Program PWSCF v.6.3MaX starts on 28Mar2019 at 20:41:11

     R & G space division:  proc/nbgrp/npool/nimage =      32
     Waiting for input...
     Reading input from standard input

     Current dimensions of program PWSCF are:
     Max number of different atomic species (ntypx) = 10
     Max number of k-points (npk) =  40000
     Max angular momentum in pseudopotentials (lmaxx) =  3
     Message from routine read_upf::
     Pseudo file ./pseudo/Mn.pbe-spn-kjpaw_psl.0.3.1.UPF has been successfully fixed on the fly.
To avoid this message in the future you can permanently fix
 your pseudo files following instructions given in:
               file Mn.pbe-spn-kjpaw_psl.0.3.1.UPF: wavefunction(s)  3P 3D renormalized
     Message from routine read_upf::
     Pseudo file ./pseudo/Mn.pbe-spn-kjpaw_psl.0.3.1.UPF has been successfully fixed on the fly.
To avoid this message in the future you can permanently fix
 your pseudo files following instructions given in:
               file Mn.pbe-spn-kjpaw_psl.0.3.1.UPF: wavefunction(s)  3P 3D renormalized
     Message from routine read_upf::
     Pseudo file ./pseudo/Au.pbe-dn-kjpaw_psl.0.1.UPF has been successfully fixed on the fly.
To avoid this message in the future you can permanently fix
 your pseudo files following instructions given in:
               file Au.pbe-dn-kjpaw_psl.0.1.UPF: wavefunction(s)  6S 6P 5D renormalized

     bravais-lattice index     =            0
     lattice parameter (alat)  =      18.0125  a.u.
     unit-cell volume          =    2685.0513 (a.u.)^3
     number of atoms/cell      =           24
     number of atomic types    =            3
     number of electrons       =       296.00
     number of Kohn-Sham states=          178
     kinetic-energy cutoff     =      45.0000  Ry
     charge density cutoff     =     400.0000  Ry
     convergence threshold     =      1.0E-06
     mixing beta               =       0.1000
     number of iterations used =            8  plain     mixing
     Exchange-correlation      = SLA PW PBX PBC ( 1  4  3  4 0 0)

     celldm(1)=  18.012490  celldm(2)=   0.000000  celldm(3)=   0.000000
     celldm(4)=   0.000000  celldm(5)=   0.000000  celldm(6)=   0.000000

     crystal axes: (cart. coord. in units of alat)
               a(1) = (   0.707107  -0.707107   0.000000 )
               a(2) = (  -0.707107  -0.707107   0.000000 )
               a(3) = (   0.176777   0.176777  -0.459443 )

     reciprocal axes: (cart. coord. in units 2 pi/alat)
               b(1) = (  0.707107 -0.707107  0.000000 )
               b(2) = ( -0.707107 -0.707107 -0.544138 )
               b(3) = (  0.000000  0.000000 -2.176550 )

     PseudoPot. # 1 for Mn read from file:
     ./pseudo/Mn.pbe-spn-kjpaw_psl.0.3.1.UPF
     MD5 check sum: 7eef95dd2aae66803482eea66ebeebf1
     Pseudo is Projector augmented-wave + core cor, Zval = 15.0
     Generated using "atomic" code by A. Dal Corso v.5.0.99 svn rev. 10869
     Shape of augmentation charge: PSQ
     Using radial grid of 1187 points,  6 beta functions with:
                l(1) =   0
                l(2) =   0
                l(3) =   1
                l(4) =   1
                l(5) =   2
                l(6) =   2
     Q(r) pseudized with 0 coefficients

     PseudoPot. # 2 for Mn read from file:
     ./pseudo/Mn.pbe-spn-kjpaw_psl.0.3.1.UPF
     MD5 check sum: 7eef95dd2aae66803482eea66ebeebf1
     Pseudo is Projector augmented-wave + core cor, Zval = 15.0
     Generated using "atomic" code by A. Dal Corso v.5.0.99 svn rev. 10869
     Shape of augmentation charge: PSQ
     Using radial grid of 1187 points,  6 beta functions with:
                l(1) =   0
                l(2) =   0
                l(3) =   1
                l(4) =   1
                l(5) =   2
                l(6) =   2
     Q(r) pseudized with 0 coefficients

     PseudoPot. # 3 for Au read from file:
     ./pseudo/Au.pbe-dn-kjpaw_psl.0.1.UPF
     MD5 check sum: 5c9b92683623e7ae2ab3f8e525febab6
     Pseudo is Projector augmented-wave + core cor, Zval = 11.0
     Generated using "atomic" code by A. Dal Corso v.5.0.2 svn rev. 9415
     Shape of augmentation charge: PSQ
     Using radial grid of 1279 points,  6 beta functions with:
                l(1) =   0
                l(2) =   0
                l(3) =   1
                l(4) =   1
                l(5) =   2
                l(6) =   2
     Q(r) pseudized with 0 coefficients

     atomic species   valence    mass     pseudopotential
        Mn1           15.00    54.93800     Mn( 1.00)
        Mn2           15.00    54.93800     Mn( 1.00)
        Au            11.00   196.96600     Au( 1.00)

     Starting magnetic structure
     atomic species   magnetization
        Mn1          1.000
        Mn2         -1.000
        Au           0.000

     Full LDA+U calculation (l_max = 2) with parameters (eV):
     U(  1) =   3.1200   J(  1) =   0.7000   B(  1) =   0.0803
     U(  2) =   3.1200   J(  2) =   0.7000   B(  2) =   0.0803

      2 Sym. Ops. (no inversion) found

   Cartesian axes

     site n.     atom                  positions (alat units)
         1           Mn1 tau(   1) = (   0.3535534  -0.3535534   0.0000000  )
         2           Mn2 tau(   2) = (   0.0000000   0.0000000   0.0000000  )
         3           Mn2 tau(   3) = (   0.0000000  -0.3535534   0.0000000  )
         4           Mn1 tau(   4) = (   0.3535534  -0.7071068   0.0000000  )
         5           Mn1 tau(   5) = (  -0.3535534  -0.3535534   0.0000000  )
         6           Mn1 tau(   6) = (   0.0000000  -0.7071068   0.0000000  )
         7           Mn2 tau(   7) = (  -0.3535534  -0.7071068   0.0000000  )
         8           Mn1 tau(   8) = (   0.0000000  -1.0606602   0.0000000  )
         9           Au  tau(   9) = (  -0.1767767  -0.1767767  -0.1470216  )
        10           Au  tau(  10) = (   0.1767767  -0.5303301  -0.1470216  )
        11           Au  tau(  11) = (  -0.1767767  -0.5303301  -0.1470216  )
        12           Au  tau(  12) = (   0.1767767  -0.8838835  -0.1470216  )
        13           Au  tau(  13) = (  -0.5303301  -0.5303301  -0.1470216  )
        14           Au  tau(  14) = (  -0.1767767  -0.8838835  -0.1470216  )
        15           Au  tau(  15) = (   0.5303301  -0.5303301  -0.1470216  )
        16           Au  tau(  16) = (   0.1767767  -0.1767767  -0.1470216  )
        17           Au  tau(  17) = (   0.3535534  -0.3535534  -0.3124210  )
        18           Au  tau(  18) = (   0.0000000   0.0000000  -0.3124210  )
        19           Au  tau(  19) = (   0.0000000  -0.3535534  -0.3124210  )
        20           Au  tau(  20) = (   0.3535534  -0.7071068  -0.3124210  )
        21           Au  tau(  21) = (  -0.3535534  -0.3535534  -0.3124210  )
        22           Au  tau(  22) = (  -0.0000000  -0.7071068  -0.3124210  )
        23           Au  tau(  23) = (  -0.3535534  -0.7071068  -0.3124210  )
        24           Au  tau(  24) = (   0.0000000  -1.0606602  -0.3124210  )

     number of k points=   170 (tetrahedron method)

     Number of k-points >= 100: set verbosity='high' to print them.

     Check: negative/imaginary core charge=   -0.000006    0.000000

     Initial potential from superposition of free atoms

     starting charge  295.99426, renormalised to  296.00000
     Number of +U iterations with fixed ns =  0
     Starting occupations:
 --- enter write_ns ---
 LDA+U parameters:
U(  1) =   3.1200   J(  1) =   0.7000   B(  1) =   0.0803
U(  2) =   3.1200   J(  2) =   0.7000   B(  2) =   0.0803
atom    1   Tr[ns(na)] (up, down, total) =   5.00000  0.00000  5.00000
   spin  1
    eigenvalues:
  1.000  1.000  1.000  1.000  1.000
    eigenvectors:
  1.000  0.000  0.000  0.000  0.000
  0.000  1.000  0.000  0.000  0.000
  0.000  0.000  1.000  0.000  0.000
  0.000  0.000  0.000  1.000  0.000
  0.000  0.000  0.000  0.000  1.000
    occupations:
  1.000  0.000  0.000  0.000  0.000
  0.000  1.000  0.000  0.000  0.000
  0.000  0.000  1.000  0.000  0.000
  0.000  0.000  0.000  1.000  0.000
  0.000  0.000  0.000  0.000  1.000
   spin  2
    eigenvalues:
  0.000  0.000  0.000  0.000  0.000
    eigenvectors:
  1.000  0.000  0.000  0.000  0.000
  0.000  1.000  0.000  0.000  0.000
  0.000  0.000  1.000  0.000  0.000
  0.000  0.000  0.000  1.000  0.000
  0.000  0.000  0.000  0.000  1.000
    occupations:
  0.000  0.000  0.000  0.000  0.000
  0.000  0.000  0.000  0.000  0.000
  0.000  0.000  0.000  0.000  0.000
  0.000  0.000  0.000  0.000  0.000
  0.000  0.000  0.000  0.000  0.000
atomic mag. moment =     5.000000
atom    2   Tr[ns(na)] (up, down, total) =   0.00000  5.00000  5.00000
   spin  1
    eigenvalues:
  0.000  0.000  0.000  0.000  0.000
    eigenvectors:
  1.000  0.000  0.000  0.000  0.000
  0.000  1.000  0.000  0.000  0.000
  0.000  0.000  1.000  0.000  0.000
  0.000  0.000  0.000  1.000  0.000
  0.000  0.000  0.000  0.000  1.000
    occupations:
  0.000  0.000  0.000  0.000  0.000
  0.000  0.000  0.000  0.000  0.000
  0.000  0.000  0.000  0.000  0.000
  0.000  0.000  0.000  0.000  0.000
  0.000  0.000  0.000  0.000  0.000
   spin  2
    eigenvalues:
  1.000  1.000  1.000  1.000  1.000
    eigenvectors:
  1.000  0.000  0.000  0.000  0.000
  0.000  1.000  0.000  0.000  0.000
  0.000  0.000  1.000  0.000  0.000
  0.000  0.000  0.000  1.000  0.000
  0.000  0.000  0.000  0.000  1.000
    occupations:
  1.000  0.000  0.000  0.000  0.000
  0.000  1.000  0.000  0.000  0.000
  0.000  0.000  1.000  0.000  0.000
  0.000  0.000  0.000  1.000  0.000
  0.000  0.000  0.000  0.000  1.000
atomic mag. moment =    -5.000000
atom    3   Tr[ns(na)] (up, down, total) =   0.00000  5.00000  5.00000
   spin  1
    eigenvalues:
  0.000  0.000  0.000  0.000  0.000
    eigenvectors:
  1.000  0.000  0.000  0.000  0.000
  0.000  1.000  0.000  0.000  0.000
  0.000  0.000  1.000  0.000  0.000
  0.000  0.000  0.000  1.000  0.000
  0.000  0.000  0.000  0.000  1.000
    occupations:
  0.000  0.000  0.000  0.000  0.000
  0.000  0.000  0.000  0.000  0.000
  0.000  0.000  0.000  0.000  0.000
  0.000  0.000  0.000  0.000  0.000
  0.000  0.000  0.000  0.000  0.000
   spin  2
    eigenvalues:
  1.000  1.000  1.000  1.000  1.000
    eigenvectors:
  1.000  0.000  0.000  0.000  0.000
  0.000  1.000  0.000  0.000  0.000
  0.000  0.000  1.000  0.000  0.000
  0.000  0.000  0.000  1.000  0.000
  0.000  0.000  0.000  0.000  1.000
    occupations:
  1.000  0.000  0.000  0.000  0.000
  0.000  1.000  0.000  0.000  0.000
  0.000  0.000  1.000  0.000  0.000
  0.000  0.000  0.000  1.000  0.000
  0.000  0.000  0.000  0.000  1.000
atomic mag. moment =    -5.000000
atom    4   Tr[ns(na)] (up, down, total) =   5.00000  0.00000  5.00000
   spin  1
    eigenvalues:
  1.000  1.000  1.000  1.000  1.000
    eigenvectors:
  1.000  0.000  0.000  0.000  0.000
  0.000  1.000  0.000  0.000  0.000
  0.000  0.000  1.000  0.000  0.000
  0.000  0.000  0.000  1.000  0.000
  0.000  0.000  0.000  0.000  1.000
    occupations:
  1.000  0.000  0.000  0.000  0.000
  0.000  1.000  0.000  0.000  0.000
  0.000  0.000  1.000  0.000  0.000
  0.000  0.000  0.000  1.000  0.000
  0.000  0.000  0.000  0.000  1.000
   spin  2
    eigenvalues:
  0.000  0.000  0.000  0.000  0.000
    eigenvectors:
[...]
   spin  2
    eigenvalues:
  0.040  0.050  0.054  0.056  0.072
    eigenvectors:
  0.008  0.985  0.001  0.006  0.001
  0.000  0.006  0.372  0.622  0.000
  0.000  0.001  0.627  0.372  0.000
  0.992  0.008  0.000  0.000  0.000
  0.000  0.001  0.000  0.000  0.998
    occupations:
  0.050  0.000 -0.000 -0.001 -0.001
  0.000  0.055 -0.001  0.000 -0.000
 -0.000 -0.001  0.055  0.000  0.000
 -0.001  0.000  0.000  0.041 -0.000
 -0.001 -0.000  0.000 -0.000  0.072
atomic mag. moment =     4.741819
atom    5   Tr[ns(na)] (up, down, total) =   5.01482  0.27734  5.29216
   spin  1
    eigenvalues:
  1.003  1.003  1.003  1.003  1.004
    eigenvectors:
  0.000  0.000  0.000  1.000  0.000
  0.001  0.498  0.500  0.000  0.000
  0.001  0.498  0.500  0.000  0.000
  0.000  0.000  0.000  0.000  1.000
  0.997  0.003  0.000  0.000  0.000
    occupations:
  1.003  0.000  0.000 -0.000  0.000
  0.000  1.003 -0.000  0.000  0.000
  0.000 -0.000  1.003 -0.000  0.000
 -0.000  0.000 -0.000  1.004 -0.000
  0.000  0.000  0.000 -0.000  1.003
   spin  2
    eigenvalues:
  0.042  0.052  0.055  0.056  0.073
    eigenvectors:
  0.000  0.980  0.000  0.018  0.002
  0.000  0.009  0.500  0.489  0.002
  0.000  0.009  0.500  0.489  0.002
  1.000  0.000  0.000  0.000  0.000
  0.000  0.001  0.000  0.004  0.995
    occupations:
  0.052  0.000  0.000 -0.000  0.001
  0.000  0.055  0.001 -0.000  0.001
  0.000  0.001  0.055  0.000  0.001
 -0.000 -0.000  0.000  0.042 -0.000
  0.001  0.001  0.001 -0.000  0.073
atomic mag. moment =     4.737477
atom    6   Tr[ns(na)] (up, down, total) =   5.01505  0.27393  5.28898
   spin  1
    eigenvalues:
  1.003  1.003  1.003  1.003  1.004
    eigenvectors:
  0.000  0.000  0.004  0.996  0.000
  0.000  0.499  0.498  0.002  0.001
  0.000  0.499  0.498  0.002  0.001
  0.000  0.001  0.000  0.000  0.999
  0.999  0.000  0.001  0.000  0.000
    occupations:
  1.003 -0.000 -0.000 -0.000  0.000
 -0.000  1.003  0.000  0.000  0.000
 -0.000  0.000  1.003 -0.000  0.000
 -0.000  0.000 -0.000  1.004 -0.000
  0.000  0.000  0.000 -0.000  1.003
   spin  2
    eigenvalues:
  0.041  0.050  0.054  0.054  0.074
    eigenvectors:
  0.000  0.999  0.000  0.001  0.000
  0.000  0.000  0.500  0.500  0.000
  0.000  0.000  0.500  0.500  0.000
  1.000  0.000  0.000  0.000  0.000
  0.000  0.000  0.000  0.000  1.000
    occupations:
  0.050 -0.000 -0.000 -0.000  0.000
 -0.000  0.054  0.000 -0.000  0.000
 -0.000  0.000  0.054  0.000  0.000
 -0.000 -0.000  0.000  0.041 -0.000
  0.000  0.000  0.000 -0.000  0.074
atomic mag. moment =     4.741120
atom    7   Tr[ns(na)] (up, down, total) =   0.27536  5.01483  5.29019
   spin  1
    eigenvalues:
  0.042  0.052  0.054  0.055  0.072
    eigenvectors:
  0.009  0.980  0.000  0.010  0.001
  0.000  0.002  0.731  0.267  0.001
  0.000  0.009  0.268  0.723  0.000
  0.991  0.009  0.000  0.000  0.000
  0.000  0.001  0.000  0.001  0.998
    occupations:
  0.052 -0.000  0.000  0.001 -0.001
 -0.000  0.055 -0.000 -0.000  0.000
  0.000 -0.000  0.055 -0.000 -0.000
  0.001 -0.000 -0.000  0.042 -0.000
 -0.001  0.000 -0.000 -0.000  0.072
   spin  2
    eigenvalues:
  1.003  1.003  1.003  1.003  1.003
    eigenvectors:
  0.000  0.000  0.000  0.982  0.017
  0.000  0.163  0.837  0.000  0.000
  0.000  0.836  0.163  0.000  0.000
  0.000  0.000  0.000  0.017  0.982
  1.000  0.000  0.000  0.000  0.000
    occupations:
  1.003  0.000 -0.000 -0.000 -0.000
  0.000  1.003  0.000 -0.000 -0.000
 -0.000  0.000  1.003 -0.000 -0.000
 -0.000 -0.000 -0.000  1.003  0.000
 -0.000 -0.000 -0.000  0.000  1.003
atomic mag. moment =    -4.739477
atom    8   Tr[ns(na)] (up, down, total) =   5.01479  0.27297  5.28776
   spin  1
    eigenvalues:
  1.003  1.003  1.003  1.003  1.004
    eigenvectors:
  0.000  0.001  0.000  0.995  0.004
  0.000  0.227  0.773  0.000  0.000
  0.001  0.772  0.227  0.001  0.000
  0.000  0.000  0.000  0.004  0.996
  0.999  0.001  0.000  0.000  0.000
    occupations:
  1.003 -0.000  0.000 -0.000  0.000
 -0.000  1.003  0.000 -0.000  0.000
  0.000  0.000  1.003  0.000 -0.000
 -0.000 -0.000  0.000  1.004  0.000
  0.000  0.000 -0.000  0.000  1.003
   spin  2
    eigenvalues:
  0.040  0.050  0.054  0.056  0.072
    eigenvectors:
  0.008  0.985  0.001  0.006  0.001
  0.000  0.001  0.627  0.372  0.000
  0.000  0.006  0.372  0.622  0.000
  0.992  0.008  0.000  0.000  0.000
  0.000  0.001  0.000  0.000  0.998
    occupations:
  0.050 -0.000  0.000  0.001 -0.001
 -0.000  0.055 -0.001 -0.000  0.000
  0.000 -0.001  0.055 -0.000 -0.000
  0.001 -0.000 -0.000  0.041  0.000
 -0.001  0.000 -0.000  0.000  0.072
atomic mag. moment =     4.741819
N of occupied +U levels =   42.316412
 --- exit write_ns ---

     total energy              =  -14679.20141389 Ry
     Harris-Foulkes estimate   =  -14669.82965659 Ry
     estimated scf accuracy    <      21.26988490 Ry

     total magnetization       =    10.47 Bohr mag/cell
     absolute magnetization    =    43.56 Bohr mag/cell

     iteration #  2     ecut=    45.00 Ry     beta= 0.10
     Davidson diagonalization with overlap
     ethr =  7.19E-03,  avg # of iterations =  1.0

[...]

     total energy              =  -14693.94770764 Ry
     Harris-Foulkes estimate   =  -14693.94770365 Ry
     estimated scf accuracy    <       0.00000224 Ry

[...]

     iteration # 20     ecut=    45.00 Ry     beta= 0.10
     Davidson diagonalization with overlap
     ethr =  7.58E-10,  avg # of iterations =  2.6

     Magnetic moment per site:
     atom:    1    charge:   13.5429    magn:    4.2096    constr:    0.0000
     atom:    2    charge:   13.5353    magn:   -4.2496    constr:    0.0000
     atom:    3    charge:   13.5374    magn:   -4.2489    constr:    0.0000
     atom:    4    charge:   13.5432    magn:    4.1936    constr:    0.0000
     atom:    5    charge:   13.5426    magn:    4.2271    constr:    0.0000
     atom:    6    charge:   13.5429    magn:    4.2077    constr:    0.0000
     atom:    7    charge:   13.5374    magn:   -4.2489    constr:    0.0000
     atom:    8    charge:   13.5432    magn:    4.1936    constr:    0.0000
     atom:    9    charge:    9.0909    magn:   -0.0015    constr:    0.0000
     atom:   10    charge:    9.0898    magn:    0.0152    constr:    0.0000
     atom:   11    charge:    9.0918    magn:   -0.0087    constr:    0.0000
     atom:   12    charge:    9.0920    magn:    0.0483    constr:    0.0000
     atom:   13    charge:    9.0908    magn:   -0.0164    constr:    0.0000
     atom:   14    charge:    9.0908    magn:    0.0178    constr:    0.0000
     atom:   15    charge:    9.0910    magn:    0.0214    constr:    0.0000
     atom:   16    charge:    9.0908    magn:   -0.0283    constr:    0.0000
     atom:   17    charge:    9.0908    magn:    0.0178    constr:    0.0000
     atom:   18    charge:    9.0908    magn:   -0.0164    constr:    0.0000
     atom:   19    charge:    9.0918    magn:   -0.0087    constr:    0.0000
     atom:   20    charge:    9.0920    magn:    0.0483    constr:    0.0000
     atom:   21    charge:    9.0909    magn:   -0.0015    constr:    0.0000
     atom:   22    charge:    9.0898    magn:    0.0152    constr:    0.0000
     atom:   23    charge:    9.0908    magn:   -0.0283    constr:    0.0000
     atom:   24    charge:    9.0910    magn:    0.0214    constr:    0.0000

     End of self-consistent calculation
 --- enter write_ns ---
 LDA+U parameters:
U(  1) =   3.1200   J(  1) =   0.7000   B(  1) =   0.0803
U(  2) =   3.1200   J(  2) =   0.7000   B(  2) =   0.0803
atom    1   Tr[ns(na)] (up, down, total) =   4.96663  0.75687  5.72350
   spin  1
    eigenvalues:
  0.983  0.991  0.993  0.997  1.002
    eigenvectors:
  0.002  0.000  0.002  0.996  0.000
  0.000  0.500  0.499  0.001  0.000
  0.000  0.500  0.499  0.001  0.000
  0.000  0.000  0.000  0.000  1.000
  0.998  0.000  0.000  0.002  0.000
    occupations:
  0.997  0.000  0.000 -0.000  0.001
  0.000  0.992  0.001 -0.000 -0.000
  0.000  0.001  0.992  0.000 -0.000
 -0.000 -0.000  0.000  1.002 -0.000
  0.001 -0.000 -0.000 -0.000  0.983
   spin  2
    eigenvalues:
  0.069  0.135  0.143  0.152  0.258
    eigenvectors:
  0.000  0.917  0.000  0.054  0.030
  0.000  0.030  0.500  0.469  0.001
  0.000  0.030  0.500  0.469  0.001
  0.999  0.000  0.001  0.000  0.000
  0.000  0.024  0.000  0.008  0.968
    occupations:
  0.140 -0.003 -0.003 -0.000 -0.020
 -0.003  0.147  0.004 -0.001  0.003
 -0.003  0.004  0.147  0.001  0.003
 -0.000 -0.001  0.001  0.069 -0.000
 -0.020  0.003  0.003 -0.000  0.254
atomic mag. moment =     4.209759
atom    2   Tr[ns(na)] (up, down, total) =   0.72541  4.96943  5.69484
   spin  1
    eigenvalues:
  0.070  0.122  0.143  0.151  0.239
    eigenvectors:
  0.000  0.998  0.000  0.000  0.001
  0.000  0.000  0.500  0.493  0.007
  0.000  0.000  0.500  0.493  0.007
  0.999  0.000  0.001  0.000  0.000
  0.000  0.001  0.000  0.014  0.985
    occupations:
  0.122 -0.000 -0.000 -0.000  0.004
 -0.000  0.147  0.005 -0.001  0.007
 -0.000  0.005  0.147  0.001  0.007
 -0.000 -0.001  0.001  0.070 -0.000
  0.004  0.007  0.007 -0.000  0.238
   spin  2
    eigenvalues:
  0.985  0.992  0.993  0.997  1.002
    eigenvectors:
  0.002  0.000  0.039  0.959  0.000
  0.001  0.500  0.480  0.019  0.000
  0.001  0.500  0.480  0.019  0.000
  0.000  0.000  0.000  0.000  1.000
  0.996  0.000  0.001  0.003  0.000
    occupations:
  0.997 -0.001 -0.001 -0.000  0.001
 -0.001  0.993  0.001 -0.000 -0.000
 -0.001  0.001  0.993  0.000 -0.000
 -0.000 -0.000  0.000  1.002 -0.000
  0.001 -0.000 -0.000 -0.000  0.985
atomic mag. moment =    -4.244027
atom    3   Tr[ns(na)] (up, down, total) =   0.72709  4.96987  5.69696
   spin  1
    eigenvalues:
  0.070  0.126  0.142  0.147  0.242
    eigenvectors:
  0.000  0.943  0.000  0.032  0.025
  0.000  0.001  0.987  0.001  0.011
  0.001  0.031  0.000  0.967  0.001
  0.999  0.000  0.000  0.001  0.000
  0.000  0.025  0.012  0.000  0.963
    occupations:
  0.129  0.002  0.003  0.001 -0.018
  0.002  0.143 -0.001 -0.001 -0.010
  0.003 -0.001  0.146 -0.002  0.003
  0.001 -0.001 -0.002  0.070 -0.001
 -0.018 -0.010  0.003 -0.001  0.238
   spin  2
    eigenvalues:
  0.985  0.992  0.994  0.997  1.001
    eigenvectors:
  0.002  0.000  0.000  0.994  0.003
  0.002  0.598  0.400  0.000  0.000
  0.000  0.400  0.600  0.000  0.000
  0.000  0.000  0.000  0.003  0.997
  0.996  0.002  0.000  0.002  0.000
    occupations:
  0.997  0.000  0.000  0.000  0.001
  0.000  0.993  0.001 -0.000  0.000
  0.000  0.001  0.993 -0.000 -0.000
  0.000 -0.000 -0.000  1.001  0.000
  0.001  0.000 -0.000  0.000  0.985
atomic mag. moment =    -4.242780
atom    4   Tr[ns(na)] (up, down, total) =   4.96450  0.76829  5.73278
   spin  1
    eigenvalues:
  0.982  0.991  0.993  0.997  1.002
    eigenvectors:
  0.000  0.001  0.001  0.993  0.004
  0.000  0.529  0.471  0.000  0.000
  0.002  0.468  0.528  0.002  0.000
  0.000  0.000  0.000  0.004  0.995
  0.998  0.002  0.000  0.000  0.000
    occupations:
  0.997 -0.000  0.000  0.000  0.000
 -0.000  0.992  0.001 -0.000 -0.000
  0.000  0.001  0.992 -0.000  0.000
  0.000 -0.000 -0.000  1.002 -0.000
  0.000 -0.000  0.000 -0.000  0.982
   spin  2
    eigenvalues:
  0.068  0.137  0.141  0.159  0.263
    eigenvectors:
  0.000  0.818  0.145  0.035  0.002
  0.000  0.051  0.655  0.289  0.005
  0.000  0.128  0.199  0.673  0.000
  1.000  0.000  0.000  0.000  0.000
  0.000  0.003  0.001  0.003  0.992
    occupations:
  0.139  0.001  0.004  0.000 -0.006
  0.001  0.147  0.008 -0.001 -0.008
  0.004  0.008  0.152 -0.001 -0.000
  0.000 -0.001 -0.001  0.068 -0.000
 -0.006 -0.008 -0.000 -0.000  0.262
atomic mag. moment =     4.196208
atom    5   Tr[ns(na)] (up, down, total) =   4.96906  0.74576  5.71482
   spin  1
    eigenvalues:
  0.984  0.993  0.994  0.997  1.002
    eigenvectors:
  0.000  0.027  0.000  0.972  0.000
  0.001  0.486  0.500  0.014  0.000
  0.001  0.486  0.500  0.014  0.000
  0.000  0.000  0.000  0.000  1.000
  0.998  0.001  0.000  0.000  0.000
    occupations:
  0.996 -0.000 -0.000 -0.000  0.000
 -0.000  0.993 -0.001 -0.000 -0.000
 -0.000 -0.001  0.993  0.000 -0.000
 -0.000 -0.000  0.000  1.002 -0.000
  0.000 -0.000 -0.000 -0.000  0.984
   spin  2
    eigenvalues:
  0.069  0.121  0.145  0.154  0.257
    eigenvectors:
  0.000  0.992  0.000  0.006  0.002
  0.000  0.003  0.500  0.493  0.004
  0.000  0.003  0.500  0.493  0.004
  1.000  0.000  0.000  0.000  0.000
  0.000  0.003  0.000  0.007  0.990
    occupations:
  0.121 -0.001 -0.001 -0.000  0.007
 -0.001  0.150  0.005 -0.001  0.007
 -0.001  0.005  0.150  0.001  0.007
 -0.000 -0.001  0.001  0.069 -0.000
  0.007  0.007  0.007 -0.000  0.256
atomic mag. moment =     4.223296
atom    6   Tr[ns(na)] (up, down, total) =   4.96632  0.76105  5.72737
   spin  1
    eigenvalues:
  0.983  0.992  0.993  0.997  1.001
    eigenvectors:
  0.001  0.000  0.001  0.998  0.000
  0.001  0.500  0.499  0.000  0.000
  0.001  0.500  0.499  0.000  0.000
  0.000  0.000  0.000  0.000  1.000
  0.998  0.000  0.001  0.001  0.000
    occupations:
  0.997 -0.000 -0.000 -0.000  0.000
 -0.000  0.993  0.000  0.000 -0.000
 -0.000  0.000  0.993 -0.000 -0.000
 -0.000  0.000 -0.000  1.001 -0.000
  0.000 -0.000 -0.000 -0.000  0.983
   spin  2
    eigenvalues:
  0.069  0.142  0.145  0.152  0.253
    eigenvectors:
  0.000  0.000  0.958  0.030  0.012
  0.000  0.500  0.016  0.483  0.001
  0.000  0.500  0.016  0.483  0.001
  1.000  0.000  0.000  0.000  0.000
  0.000  0.000  0.010  0.004  0.987
    occupations:
  0.147  0.001  0.001 -0.000 -0.011
  0.001  0.147  0.005  0.001 -0.003
  0.001  0.005  0.147 -0.001 -0.003
 -0.000  0.001 -0.001  0.069 -0.000
 -0.011 -0.003 -0.003 -0.000  0.252
atomic mag. moment =     4.205262
atom    7   Tr[ns(na)] (up, down, total) =   0.72709  4.96987  5.69696
   spin  1
    eigenvalues:
  0.070  0.126  0.142  0.147  0.242
    eigenvectors:
  0.000  0.943  0.000  0.032  0.025
  0.001  0.031  0.000  0.967  0.001
  0.000  0.001  0.987  0.001  0.011
  0.999  0.000  0.000  0.001  0.000
  0.000  0.025  0.012  0.000  0.963
    occupations:
  0.129  0.003  0.002 -0.001 -0.018
  0.003  0.146 -0.001  0.002  0.003
  0.002 -0.001  0.143  0.001 -0.010
 -0.001  0.002  0.001  0.070  0.001
 -0.018  0.003 -0.010  0.001  0.238
   spin  2
    eigenvalues:
  0.985  0.992  0.994  0.997  1.001
    eigenvectors:
  0.002  0.000  0.000  0.994  0.003
  0.000  0.400  0.600  0.000  0.000
  0.002  0.598  0.400  0.000  0.000
  0.000  0.000  0.000  0.003  0.997
  0.996  0.002  0.000  0.002  0.000
    occupations:
  0.997  0.000  0.000 -0.000  0.001
  0.000  0.993  0.001  0.000 -0.000
  0.000  0.001  0.993  0.000  0.000
 -0.000  0.000  0.000  1.001 -0.000
  0.001 -0.000  0.000 -0.000  0.985
atomic mag. moment =    -4.242780
atom    8   Tr[ns(na)] (up, down, total) =   4.96450  0.76829  5.73278
   spin  1
    eigenvalues:
  0.982  0.991  0.993  0.997  1.002
    eigenvectors:
  0.000  0.001  0.001  0.993  0.004
  0.002  0.468  0.528  0.002  0.000
  0.000  0.529  0.471  0.000  0.000
  0.000  0.000  0.000  0.004  0.995
  0.998  0.002  0.000  0.000  0.000
    occupations:
  0.997  0.000 -0.000 -0.000  0.000
  0.000  0.992  0.001  0.000  0.000
 -0.000  0.001  0.992  0.000 -0.000
 -0.000  0.000  0.000  1.002  0.000
  0.000  0.000 -0.000  0.000  0.982
   spin  2
    eigenvalues:
  0.068  0.137  0.141  0.159  0.263
    eigenvectors:
  0.000  0.818  0.145  0.035  0.002
  0.000  0.128  0.199  0.673  0.000
  0.000  0.051  0.655  0.289  0.005
  1.000  0.000  0.000  0.000  0.000
  0.000  0.003  0.001  0.003  0.992
    occupations:
  0.139  0.004  0.001 -0.000 -0.006
  0.004  0.152  0.008  0.001 -0.000
  0.001  0.008  0.147  0.001 -0.008
 -0.000  0.001  0.001  0.068  0.000
 -0.006 -0.000 -0.008  0.000  0.262
atomic mag. moment =     4.196208
N of occupied +U levels =   45.720020
 --- exit write_ns ---

     Number of k-points >= 100: set verbosity='high' to print the bands.

     the Fermi energy is    15.5883 ev

!    total energy              =  -14693.94772159 Ry
     Harris-Foulkes estimate   =  -14693.94770726 Ry
     estimated scf accuracy    <       0.00000087 Ry

     total all-electron energy =   -626921.543444 Ry

     The total energy is the sum of the following terms:

     one-electron contribution =    -698.49835579 Ry
     hartree contribution      =     651.62570797 Ry
     xc contribution           =    -738.10264173 Ry
     ewald contribution        =   -2207.56121140 Ry
     Hubbard energy            =       0.45920939 Ry
     one-center paw contrib.   =  -11701.87043002 Ry

     total magnetization       =     8.47 Bohr mag/cell
     absolute magnetization    =    36.80 Bohr mag/cell

     convergence has been achieved in  20 iterations

     Writing output data file mnau2.save/

     General routines

     Parallel routines

     Hubbard U routines

      28h

   This run was terminated on:  22: 9:12  28Mar2019

   JOB DONE.