     Program PWSCF v.6.3MaX starts on 29Mar2019 at  1:25: 4

     R & G space division:  proc/nbgrp/npool/nimage =      32
     Waiting for input...
     Reading input from standard input

     Current dimensions of program PWSCF are:
     Max number of different atomic species (ntypx) = 10
     Max number of k-points (npk) =  40000
     Max angular momentum in pseudopotentials (lmaxx) =  3
     Message from routine read_upf::
     Pseudo file ./pseudo/Mn.pbe-spn-kjpaw_psl.0.3.1.UPF has been successfully fixed on the fly.
To avoid this message in the future you can permanently fix
 your pseudo files following instructions given in:
               file Mn.pbe-spn-kjpaw_psl.0.3.1.UPF: wavefunction(s)  3P 3D renormalized
     Message from routine read_upf::
     Pseudo file ./pseudo/Mn.pbe-spn-kjpaw_psl.0.3.1.UPF has been successfully fixed on the fly.
To avoid this message in the future you can permanently fix
 your pseudo files following instructions given in:
               file Mn.pbe-spn-kjpaw_psl.0.3.1.UPF: wavefunction(s)  3P 3D renormalized
     Message from routine read_upf::
     Pseudo file ./pseudo/Au.pbe-dn-kjpaw_psl.0.1.UPF has been successfully fixed on the fly.
To avoid this message in the future you can permanently fix
 your pseudo files following instructions given in:
               file Au.pbe-dn-kjpaw_psl.0.1.UPF: wavefunction(s)  6S 6P 5D renormalized

     bravais-lattice index     =            0
     lattice parameter (alat)  =      18.0125  a.u.
     unit-cell volume          =    2685.0513 (a.u.)^3
     number of atoms/cell      =           24
     number of atomic types    =            3
     number of electrons       =       296.00
     number of Kohn-Sham states=          178
     kinetic-energy cutoff     =      45.0000  Ry
     charge density cutoff     =     400.0000  Ry
     convergence threshold     =      1.0E-06
     mixing beta               =       0.1000
     number of iterations used =            8  plain     mixing
     Exchange-correlation      = SLA PW PBX PBC ( 1  4  3  4 0 0)

     celldm(1)=  18.012490  celldm(2)=   0.000000  celldm(3)=   0.000000
     celldm(4)=   0.000000  celldm(5)=   0.000000  celldm(6)=   0.000000

     crystal axes: (cart. coord. in units of alat)
               a(1) = (   0.707107  -0.707107   0.000000 )
               a(2) = (  -0.707107  -0.707107   0.000000 )
               a(3) = (   0.176777   0.176777  -0.459443 )

     reciprocal axes: (cart. coord. in units 2 pi/alat)
               b(1) = (  0.707107 -0.707107  0.000000 )
               b(2) = ( -0.707107 -0.707107 -0.544138 )
               b(3) = (  0.000000  0.000000 -2.176550 )

     PseudoPot. # 1 for Mn read from file:
     ./pseudo/Mn.pbe-spn-kjpaw_psl.0.3.1.UPF
     MD5 check sum: 7eef95dd2aae66803482eea66ebeebf1
     Pseudo is Projector augmented-wave + core cor, Zval = 15.0
     Generated using "atomic" code by A. Dal Corso v.5.0.99 svn rev. 10869
     Shape of augmentation charge: PSQ
     Using radial grid of 1187 points,  6 beta functions with:
                l(1) =   0
                l(2) =   0
                l(3) =   1
                l(4) =   1
                l(5) =   2
                l(6) =   2
     Q(r) pseudized with 0 coefficients

     PseudoPot. # 2 for Mn read from file:
     ./pseudo/Mn.pbe-spn-kjpaw_psl.0.3.1.UPF
     MD5 check sum: 7eef95dd2aae66803482eea66ebeebf1
     Pseudo is Projector augmented-wave + core cor, Zval = 15.0
     Generated using "atomic" code by A. Dal Corso v.5.0.99 svn rev. 10869
     Shape of augmentation charge: PSQ
     Using radial grid of 1187 points,  6 beta functions with:
                l(1) =   0
                l(2) =   0
                l(3) =   1
                l(4) =   1
                l(5) =   2
                l(6) =   2
     Q(r) pseudized with 0 coefficients

     PseudoPot. # 3 for Au read from file:
     ./pseudo/Au.pbe-dn-kjpaw_psl.0.1.UPF
     MD5 check sum: 5c9b92683623e7ae2ab3f8e525febab6
     Pseudo is Projector augmented-wave + core cor, Zval = 11.0
     Generated using "atomic" code by A. Dal Corso v.5.0.2 svn rev. 9415
     Shape of augmentation charge: PSQ
     Using radial grid of 1279 points,  6 beta functions with:
                l(1) =   0
                l(2) =   0
                l(3) =   1
                l(4) =   1
                l(5) =   2
                l(6) =   2
     Q(r) pseudized with 0 coefficients

     atomic species   valence    mass     pseudopotential
        Mn1           15.00    54.93800     Mn( 1.00)
        Mn2           15.00    54.93800     Mn( 1.00)
        Au            11.00   196.96600     Au( 1.00)

     Starting magnetic structure
     atomic species   magnetization
        Mn1          1.000
        Mn2         -1.000
        Au           0.000

     Full LDA+U calculation (l_max = 2) with parameters (eV):
     U(  1) =   3.1200   J(  1) =   0.7000   B(  1) =   0.0803
     U(  2) =   3.1200   J(  2) =   0.7000   B(  2) =   0.0803

      2 Sym. Ops. (no inversion) found ( 1 have fractional translation)

   Cartesian axes

     site n.     atom                  positions (alat units)
         1           Mn1 tau(   1) = (   0.3535534  -0.3535534   0.0000000  )
         2           Mn1 tau(   2) = (   0.0000000   0.0000000   0.0000000  )
         3           Mn1 tau(   3) = (   0.0000000  -0.3535534   0.0000000  )
         4           Mn2 tau(   4) = (   0.3535534  -0.7071068   0.0000000  )
         5           Mn2 tau(   5) = (  -0.3535534  -0.3535534   0.0000000  )
         6           Mn2 tau(   6) = (   0.0000000  -0.7071068   0.0000000  )
         7           Mn1 tau(   7) = (  -0.3535534  -0.7071068   0.0000000  )
         8           Mn1 tau(   8) = (   0.0000000  -1.0606602   0.0000000  )
         9           Au  tau(   9) = (  -0.1767767  -0.1767767  -0.1470216  )
        10           Au  tau(  10) = (   0.1767767  -0.5303301  -0.1470216  )
        11           Au  tau(  11) = (  -0.1767767  -0.5303301  -0.1470216  )
        12           Au  tau(  12) = (   0.1767767  -0.8838835  -0.1470216  )
        13           Au  tau(  13) = (  -0.5303301  -0.5303301  -0.1470216  )
        14           Au  tau(  14) = (  -0.1767767  -0.8838835  -0.1470216  )
        15           Au  tau(  15) = (   0.5303301  -0.5303301  -0.1470216  )
        16           Au  tau(  16) = (   0.1767767  -0.1767767  -0.1470216  )
        17           Au  tau(  17) = (   0.3535534  -0.3535534  -0.3124210  )
        18           Au  tau(  18) = (   0.0000000   0.0000000  -0.3124210  )
        19           Au  tau(  19) = (   0.0000000  -0.3535534  -0.3124210  )
        20           Au  tau(  20) = (   0.3535534  -0.7071068  -0.3124210  )
        21           Au  tau(  21) = (  -0.3535534  -0.3535534  -0.3124210  )
        22           Au  tau(  22) = (  -0.0000000  -0.7071068  -0.3124210  )
        23           Au  tau(  23) = (  -0.3535534  -0.7071068  -0.3124210  )
        24           Au  tau(  24) = (   0.0000000  -1.0606602  -0.3124210  )

     number of k points=   170 (tetrahedron method)

     Number of k-points >= 100: set verbosity='high' to print them.

     Check: negative/imaginary core charge=   -0.000006    0.000000

     Initial potential from superposition of free atoms

     starting charge  295.99426, renormalised to  296.00000
     Number of +U iterations with fixed ns =  0
     Starting occupations:
 --- enter write_ns ---
 LDA+U parameters:
U(  1) =   3.1200   J(  1) =   0.7000   B(  1) =   0.0803
U(  2) =   3.1200   J(  2) =   0.7000   B(  2) =   0.0803
atom    1   Tr[ns(na)] (up, down, total) =   5.00000  0.00000  5.00000
   spin  1
    eigenvalues:
  1.000  1.000  1.000  1.000  1.000
    eigenvectors:
  1.000  0.000  0.000  0.000  0.000
  0.000  1.000  0.000  0.000  0.000
  0.000  0.000  1.000  0.000  0.000
  0.000  0.000  0.000  1.000  0.000
  0.000  0.000  0.000  0.000  1.000
    occupations:
  1.000  0.000  0.000  0.000  0.000
  0.000  1.000  0.000  0.000  0.000
  0.000  0.000  1.000  0.000  0.000
  0.000  0.000  0.000  1.000  0.000
  0.000  0.000  0.000  0.000  1.000
   spin  2
    eigenvalues:
  0.000  0.000  0.000  0.000  0.000
    eigenvectors:
  1.000  0.000  0.000  0.000  0.000
  0.000  1.000  0.000  0.000  0.000
  0.000  0.000  1.000  0.000  0.000
  0.000  0.000  0.000  1.000  0.000
  0.000  0.000  0.000  0.000  1.000
    occupations:
  0.000  0.000  0.000  0.000  0.000
  0.000  0.000  0.000  0.000  0.000
  0.000  0.000  0.000  0.000  0.000
  0.000  0.000  0.000  0.000  0.000
  0.000  0.000  0.000  0.000  0.000
atomic mag. moment =     5.000000
atom    2   Tr[ns(na)] (up, down, total) =   5.00000  0.00000  5.00000
   spin  1
    eigenvalues:
  1.000  1.000  1.000  1.000  1.000
    eigenvectors:
  1.000  0.000  0.000  0.000  0.000
  0.000  1.000  0.000  0.000  0.000
  0.000  0.000  1.000  0.000  0.000
  0.000  0.000  0.000  1.000  0.000
  0.000  0.000  0.000  0.000  1.000
    occupations:
  1.000  0.000  0.000  0.000  0.000
  0.000  1.000  0.000  0.000  0.000
  0.000  0.000  1.000  0.000  0.000
  0.000  0.000  0.000  1.000  0.000
  0.000  0.000  0.000  0.000  1.000
   spin  2
    eigenvalues:
  0.000  0.000  0.000  0.000  0.000
    eigenvectors:
  1.000  0.000  0.000  0.000  0.000
  0.000  1.000  0.000  0.000  0.000
  0.000  0.000  1.000  0.000  0.000
  0.000  0.000  0.000  1.000  0.000
  0.000  0.000  0.000  0.000  1.000
    occupations:
  0.000  0.000  0.000  0.000  0.000
  0.000  0.000  0.000  0.000  0.000
  0.000  0.000  0.000  0.000  0.000
  0.000  0.000  0.000  0.000  0.000
  0.000  0.000  0.000  0.000  0.000
atomic mag. moment =     5.000000
atom    3   Tr[ns(na)] (up, down, total) =   5.00000  0.00000  5.00000
   spin  1
    eigenvalues:
  1.000  1.000  1.000  1.000  1.000
    eigenvectors:
  1.000  0.000  0.000  0.000  0.000
  0.000  1.000  0.000  0.000  0.000
  0.000  0.000  1.000  0.000  0.000
  0.000  0.000  0.000  1.000  0.000
  0.000  0.000  0.000  0.000  1.000
    occupations:
  1.000  0.000  0.000  0.000  0.000
  0.000  1.000  0.000  0.000  0.000
  0.000  0.000  1.000  0.000  0.000
  0.000  0.000  0.000  1.000  0.000
  0.000  0.000  0.000  0.000  1.000
   spin  2
    eigenvalues:
  0.000  0.000  0.000  0.000  0.000
    eigenvectors:
  1.000  0.000  0.000  0.000  0.000
  0.000  1.000  0.000  0.000  0.000
  0.000  0.000  1.000  0.000  0.000
  0.000  0.000  0.000  1.000  0.000
  0.000  0.000  0.000  0.000  1.000
    occupations:
  0.000  0.000  0.000  0.000  0.000
  0.000  0.000  0.000  0.000  0.000
  0.000  0.000  0.000  0.000  0.000
  0.000  0.000  0.000  0.000  0.000
  0.000  0.000  0.000  0.000  0.000
atomic mag. moment =     5.000000
atom    4   Tr[ns(na)] (up, down, total) =   0.00000  5.00000  5.00000
   spin  1
    eigenvalues:
  0.000  0.000  0.000  0.000  0.000
    eigenvectors:
  1.000  0.000  0.000  0.000  0.000
  0.000  1.000  0.000  0.000  0.000
  0.000  0.000  1.000  0.000  0.000
  0.000  0.000  0.000  1.000  0.000
  0.000  0.000  0.000  0.000  1.000
    occupations:
  0.000  0.000  0.000  0.000  0.000
  0.000  0.000  0.000  0.000  0.000
  0.000  0.000  0.000  0.000  0.000
  0.000  0.000  0.000  0.000  0.000
  0.000  0.000  0.000  0.000  0.000
   spin  2
    eigenvalues:
  1.000  1.000  1.000  1.000  1.000
[...]
   spin  2
    eigenvalues:
  1.003  1.003  1.003  1.003  1.003
    eigenvectors:
  0.000  0.000  0.001  0.999  0.000
  0.000  0.500  0.499  0.001  0.000
  0.000  0.500  0.499  0.001  0.000
  0.000  0.000  0.000  0.000  1.000
  0.999  0.000  0.000  0.000  0.000
    occupations:
  1.003 -0.000 -0.000 -0.000 -0.000
 -0.000  1.003  0.000  0.000  0.000
 -0.000  0.000  1.003 -0.000  0.000
 -0.000  0.000 -0.000  1.003 -0.000
 -0.000  0.000  0.000 -0.000  1.003
atomic mag. moment =    -4.738995
atom    5   Tr[ns(na)] (up, down, total) =   0.27767  5.01487  5.29254
   spin  1
    eigenvalues:
  0.042  0.052  0.054  0.056  0.073
    eigenvectors:
  0.007  0.952  0.029  0.010  0.002
  0.000  0.036  0.374  0.589  0.001
  0.000  0.005  0.596  0.395  0.004
  0.993  0.006  0.001  0.000  0.000
  0.000  0.001  0.000  0.005  0.993
    occupations:
  0.053  0.000  0.000 -0.001  0.001
  0.000  0.055  0.001 -0.000  0.001
  0.000  0.001  0.055  0.000  0.001
 -0.001 -0.000  0.000  0.042  0.000
  0.001  0.001  0.001  0.000  0.073
   spin  2
    eigenvalues:
  1.003  1.003  1.003  1.003  1.004
    eigenvectors:
  0.000  0.001  0.000  0.985  0.014
  0.001  0.967  0.032  0.001  0.000
  0.002  0.031  0.966  0.000  0.000
  0.000  0.000  0.000  0.014  0.985
  0.996  0.001  0.002  0.000  0.000
    occupations:
  1.003  0.000 -0.000  0.000  0.000
  0.000  1.003 -0.000 -0.000  0.000
 -0.000 -0.000  1.003 -0.000  0.000
  0.000 -0.000 -0.000  1.004 -0.000
  0.000  0.000  0.000 -0.000  1.003
atomic mag. moment =    -4.737199
atom    6   Tr[ns(na)] (up, down, total) =   0.27767  5.01487  5.29254
   spin  1
    eigenvalues:
  0.042  0.052  0.054  0.056  0.073
    eigenvectors:
  0.007  0.952  0.029  0.010  0.002
  0.000  0.005  0.596  0.395  0.004
  0.000  0.036  0.374  0.589  0.001
  0.993  0.006  0.001  0.000  0.000
  0.000  0.001  0.000  0.005  0.993
    occupations:
  0.053  0.000  0.000  0.001  0.001
  0.000  0.055  0.001 -0.000  0.001
  0.000  0.001  0.055  0.000  0.001
  0.001 -0.000  0.000  0.042 -0.000
  0.001  0.001  0.001 -0.000  0.073
   spin  2
    eigenvalues:
  1.003  1.003  1.003  1.003  1.004
    eigenvectors:
  0.000  0.001  0.000  0.985  0.014
  0.002  0.031  0.966  0.000  0.000
  0.001  0.967  0.032  0.001  0.000
  0.000  0.000  0.000  0.014  0.985
  0.996  0.001  0.002  0.000  0.000
    occupations:
  1.003 -0.000  0.000 -0.000  0.000
 -0.000  1.003 -0.000  0.000  0.000
  0.000 -0.000  1.003  0.000  0.000
 -0.000  0.000  0.000  1.004  0.000
  0.000  0.000  0.000  0.000  1.003
atomic mag. moment =    -4.737199
atom    7   Tr[ns(na)] (up, down, total) =   5.01488  0.27403  5.28891
   spin  1
    eigenvalues:
  1.003  1.003  1.003  1.003  1.004
    eigenvectors:
  0.000  0.000  0.000  1.000  0.000
  0.000  0.500  0.500  0.000  0.000
  0.000  0.500  0.500  0.000  0.000
  0.000  0.000  0.000  0.000  1.000
  0.999  0.001  0.000  0.000  0.000
    occupations:
  1.003 -0.000 -0.000 -0.000  0.000
 -0.000  1.003 -0.000 -0.000 -0.000
 -0.000 -0.000  1.003  0.000 -0.000
 -0.000 -0.000  0.000  1.004 -0.000
  0.000 -0.000 -0.000 -0.000  1.003
   spin  2
    eigenvalues:
  0.042  0.050  0.054  0.054  0.074
    eigenvectors:
  0.000  1.000  0.000  0.000  0.000
  0.000  0.000  0.500  0.500  0.000
  0.000  0.000  0.500  0.500  0.000
  1.000  0.000  0.000  0.000  0.000
  0.000  0.000  0.000  0.000  1.000
    occupations:
  0.050  0.000  0.000 -0.000 -0.000
  0.000  0.054  0.000 -0.000  0.000
  0.000  0.000  0.054  0.000  0.000
 -0.000 -0.000  0.000  0.042 -0.000
 -0.000  0.000  0.000 -0.000  0.074
atomic mag. moment =     4.740848
atom    8   Tr[ns(na)] (up, down, total) =   5.01478  0.27645  5.29123
   spin  1
    eigenvalues:
  1.003  1.003  1.003  1.003  1.004
    eigenvectors:
  0.001  0.000  0.000  0.999  0.000
  0.000  0.500  0.500  0.000  0.000
  0.000  0.500  0.500  0.000  0.000
  0.000  0.000  0.001  0.000  0.999
  0.999  0.000  0.000  0.001  0.000
    occupations:
  1.003 -0.000 -0.000 -0.000  0.000
 -0.000  1.003 -0.000 -0.000  0.000
 -0.000 -0.000  1.003  0.000  0.000
 -0.000 -0.000  0.000  1.004 -0.000
  0.000  0.000  0.000 -0.000  1.003
   spin  2
    eigenvalues:
  0.041  0.052  0.054  0.056  0.073
    eigenvectors:
  0.000  0.975  0.000  0.023  0.001
  0.000  0.012  0.500  0.486  0.002
  0.000  0.012  0.500  0.486  0.002
  1.000  0.000  0.000  0.000  0.000
  0.000  0.001  0.000  0.006  0.994
    occupations:
  0.052  0.000  0.000 -0.000  0.001
  0.000  0.055  0.001 -0.000  0.001
  0.000  0.001  0.055  0.000  0.001
 -0.000 -0.000  0.000  0.041 -0.000
  0.001  0.001  0.001 -0.000  0.073
atomic mag. moment =     4.738331
N of occupied +U levels =   42.323338
 --- exit write_ns ---

     total energy              =  -14679.22640297 Ry
     Harris-Foulkes estimate   =  -14669.81569047 Ry
     estimated scf accuracy    <      21.27096581 Ry

     total magnetization       =    10.49 Bohr mag/cell
     absolute magnetization    =    43.52 Bohr mag/cell

     iteration #  2     ecut=    45.00 Ry     beta= 0.10
     Davidson diagonalization with overlap
     ethr =  7.19E-03,  avg # of iterations =  1.0

[...]

     total energy              =  -14693.94944852 Ry
     Harris-Foulkes estimate   =  -14693.94944487 Ry
     estimated scf accuracy    <       0.00000132 Ry

[...]

     iteration # 20     ecut=    45.00 Ry     beta= 0.10
     Davidson diagonalization with overlap
     ethr =  4.47E-10,  avg # of iterations =  2.7

     Magnetic moment per site:
     atom:    1    charge:   13.5434    magn:    4.2070    constr:    0.0000
     atom:    2    charge:   13.5434    magn:    4.2070    constr:    0.0000
     atom:    3    charge:   13.5390    magn:    4.2295    constr:    0.0000
     atom:    4    charge:   13.5363    magn:   -4.2454    constr:    0.0000
     atom:    5    charge:   13.5347    magn:   -4.2613    constr:    0.0000
     atom:    6    charge:   13.5347    magn:   -4.2613    constr:    0.0000
     atom:    7    charge:   13.5421    magn:    4.2124    constr:    0.0000
     atom:    8    charge:   13.5423    magn:    4.2249    constr:    0.0000
     atom:    9    charge:    9.0913    magn:   -0.0086    constr:    0.0000
     atom:   10    charge:    9.0913    magn:   -0.0086    constr:    0.0000
     atom:   11    charge:    9.0927    magn:   -0.0024    constr:    0.0000
     atom:   12    charge:    9.0930    magn:   -0.0235    constr:    0.0000
     atom:   13    charge:    9.0914    magn:    0.0248    constr:    0.0000
     atom:   14    charge:    9.0914    magn:    0.0248    constr:    0.0000
     atom:   15    charge:    9.0912    magn:    0.0052    constr:    0.0000
     atom:   16    charge:    9.0919    magn:    0.0474    constr:    0.0000
     atom:   17    charge:    9.0907    magn:    0.0028    constr:    0.0000
     atom:   18    charge:    9.0907    magn:    0.0028    constr:    0.0000
     atom:   19    charge:    9.0938    magn:   -0.0009    constr:    0.0000
     atom:   20    charge:    9.0934    magn:   -0.0355    constr:    0.0000
     atom:   21    charge:    9.0917    magn:    0.0125    constr:    0.0000
     atom:   22    charge:    9.0917    magn:    0.0125    constr:    0.0000
     atom:   23    charge:    9.0910    magn:    0.0417    constr:    0.0000
     atom:   24    charge:    9.0917    magn:    0.0231    constr:    0.0000

     End of self-consistent calculation
 --- enter write_ns ---
 LDA+U parameters:
U(  1) =   3.1200   J(  1) =   0.7000   B(  1) =   0.0803
U(  2) =   3.1200   J(  2) =   0.7000   B(  2) =   0.0803
atom    1   Tr[ns(na)] (up, down, total) =   4.96654  0.76171  5.72824
   spin  1
    eigenvalues:
  0.983  0.992  0.993  0.996  1.002
    eigenvectors:
  0.000  0.029  0.001  0.967  0.003
  0.001  0.235  0.760  0.003  0.000
  0.000  0.736  0.237  0.027  0.000
  0.000  0.000  0.000  0.003  0.997
  0.998  0.000  0.001  0.000  0.000
    occupations:
  0.996 -0.000 -0.001 -0.000  0.000
 -0.000  0.993 -0.000  0.000  0.000
 -0.001 -0.000  0.992  0.000 -0.000
 -0.000  0.000  0.000  1.002 -0.000
  0.000  0.000 -0.000 -0.000  0.983
   spin  2
    eigenvalues:
  0.068  0.124  0.150  0.157  0.263
    eigenvectors:
  0.000  0.996  0.000  0.000  0.004
  0.000  0.000  0.003  0.994  0.003
  0.000  0.000  0.996  0.003  0.001
  1.000  0.000  0.000  0.000  0.000
  0.000  0.004  0.001  0.003  0.992
    occupations:
  0.125  0.001  0.000  0.000  0.009
  0.001  0.157  0.000  0.001  0.006
  0.000  0.000  0.150  0.000 -0.003
  0.000  0.001  0.000  0.068 -0.000
  0.009  0.006 -0.003 -0.000  0.262
atomic mag. moment =     4.204832
atom    2   Tr[ns(na)] (up, down, total) =   4.96654  0.76171  5.72824
   spin  1
    eigenvalues:
  0.983  0.992  0.993  0.996  1.002
    eigenvectors:
  0.000  0.029  0.001  0.967  0.003
  0.000  0.736  0.237  0.027  0.000
  0.001  0.235  0.760  0.003  0.000
  0.000  0.000  0.000  0.003  0.997
  0.998  0.000  0.001  0.000  0.000
    occupations:
  0.996 -0.001 -0.000  0.000  0.000
 -0.001  0.992 -0.000 -0.000 -0.000
 -0.000 -0.000  0.993 -0.000  0.000
  0.000 -0.000 -0.000  1.002  0.000
  0.000 -0.000  0.000  0.000  0.983
   spin  2
    eigenvalues:
  0.068  0.124  0.150  0.157  0.263
    eigenvectors:
  0.000  0.996  0.000  0.000  0.004
  0.000  0.000  0.996  0.003  0.001
  0.000  0.000  0.003  0.994  0.003
  1.000  0.000  0.000  0.000  0.000
  0.000  0.004  0.001  0.003  0.992
    occupations:
  0.125  0.000  0.001 -0.000  0.009
  0.000  0.150  0.000 -0.000 -0.003
  0.001  0.000  0.157 -0.001  0.006
 -0.000 -0.000 -0.001  0.068  0.000
  0.009 -0.003  0.006  0.000  0.262
atomic mag. moment =     4.204832
atom    3   Tr[ns(na)] (up, down, total) =   4.96906  0.73831  5.70737
   spin  1
    eigenvalues:
  0.985  0.992  0.993  0.998  1.002
    eigenvectors:
  0.000  0.000  0.004  0.996  0.000
  0.004  0.500  0.494  0.002  0.000
  0.004  0.500  0.494  0.002  0.000
  0.000  0.000  0.000  0.000  1.000
  0.993  0.000  0.007  0.000  0.000
    occupations:
  0.998  0.000  0.000 -0.000  0.000
  0.000  0.993  0.001 -0.000  0.001
  0.000  0.001  0.993  0.000  0.001
 -0.000 -0.000  0.000  1.002 -0.000
  0.000  0.001  0.001 -0.000  0.985
   spin  2
    eigenvalues:
  0.069  0.122  0.149  0.150  0.248
    eigenvectors:
  0.000  0.986  0.000  0.000  0.014
  0.000  0.000  0.497  0.500  0.003
  0.000  0.000  0.497  0.500  0.003
  1.000  0.000  0.000  0.000  0.000
  0.000  0.014  0.005  0.000  0.981
    occupations:
  0.124  0.001  0.001 -0.000 -0.015
  0.001  0.150 -0.001 -0.000 -0.005
  0.001 -0.001  0.150  0.000 -0.005
 -0.000 -0.000  0.000  0.069 -0.000
 -0.015 -0.005 -0.005 -0.000  0.246
atomic mag. moment =     4.230745
atom    4   Tr[ns(na)] (up, down, total) =   0.72840  4.96911  5.69751
   spin  1
    eigenvalues:
  0.069  0.121  0.145  0.146  0.247
    eigenvectors:
  0.000  0.996  0.000  0.001  0.002
  0.000  0.001  0.500  0.494  0.006
  0.000  0.001  0.500  0.494  0.006
  1.000  0.000  0.000  0.000  0.000
  0.000  0.002  0.000  0.011  0.987
    occupations:
  0.121  0.001  0.001 -0.000  0.006
  0.001  0.146  0.001 -0.001  0.007
  0.001  0.001  0.146  0.001  0.007
 -0.000 -0.001  0.001  0.069 -0.000
  0.006  0.007  0.007 -0.000  0.246
   spin  2
    eigenvalues:
  0.985  0.992  0.993  0.997  1.002
    eigenvectors:
  0.000  0.000  0.034  0.965  0.000
  0.000  0.500  0.483  0.017  0.000
  0.000  0.500  0.483  0.017  0.000
  0.000  0.000  0.000  0.000  1.000
  0.999  0.000  0.001  0.000  0.000
    occupations:
  0.997 -0.001 -0.001 -0.000 -0.000
 -0.001  0.993  0.000 -0.000 -0.000
 -0.001  0.000  0.993  0.000 -0.000
 -0.000 -0.000  0.000  1.002 -0.000
 -0.000 -0.000 -0.000 -0.000  0.985
atomic mag. moment =    -4.240707
atom    5   Tr[ns(na)] (up, down, total) =   0.71848  4.97097  5.68944
   spin  1
    eigenvalues:
  0.071  0.125  0.139  0.146  0.237
    eigenvectors:
  0.000  0.992  0.000  0.001  0.007
  0.001  0.000  0.600  0.398  0.000
  0.000  0.000  0.388  0.582  0.029
  0.999  0.000  0.000  0.001  0.000
  0.000  0.008  0.011  0.018  0.963
    occupations:
  0.126 -0.000  0.001  0.001  0.009
 -0.000  0.142  0.003 -0.002 -0.000
  0.001  0.003  0.146 -0.001  0.016
  0.001 -0.002 -0.001  0.071  0.001
  0.009 -0.000  0.016  0.001  0.234
   spin  2
    eigenvalues:
  0.985  0.993  0.994  0.997  1.002
    eigenvectors:
  0.004  0.032  0.001  0.962  0.002
  0.001  0.607  0.366  0.026  0.000
  0.003  0.356  0.633  0.008  0.000
  0.000  0.000  0.000  0.002  0.998
  0.992  0.004  0.001  0.002  0.000
    occupations:
  0.997 -0.001 -0.000  0.000 -0.001
 -0.001  0.994 -0.000 -0.000 -0.000
 -0.000 -0.000  0.994 -0.000 -0.000
  0.000 -0.000 -0.000  1.002  0.000
 -0.001 -0.000 -0.000  0.000  0.985
atomic mag. moment =    -4.252492
atom    6   Tr[ns(na)] (up, down, total) =   0.71848  4.97097  5.68944
   spin  1
    eigenvalues:
  0.071  0.125  0.139  0.146  0.237
    eigenvectors:
  0.000  0.992  0.000  0.001  0.007
  0.000  0.000  0.388  0.582  0.029
  0.001  0.000  0.600  0.398  0.000
  0.999  0.000  0.000  0.001  0.000
  0.000  0.008  0.011  0.018  0.963
    occupations:
  0.126  0.001 -0.000 -0.001  0.009
  0.001  0.146  0.003  0.001  0.016
 -0.000  0.003  0.142  0.002 -0.000
 -0.001  0.001  0.002  0.071 -0.001
  0.009  0.016 -0.000 -0.001  0.234
   spin  2
    eigenvalues:
  0.985  0.993  0.994  0.997  1.002
    eigenvectors:
  0.004  0.032  0.001  0.962  0.002
  0.003  0.356  0.633  0.008  0.000
  0.001  0.607  0.366  0.026  0.000
  0.000  0.000  0.000  0.002  0.998
  0.992  0.004  0.001  0.002  0.000
    occupations:
  0.997 -0.000 -0.001 -0.000 -0.001
 -0.000  0.994 -0.000  0.000 -0.000
 -0.001 -0.000  0.994  0.000 -0.000
 -0.000  0.000  0.000  1.002 -0.000
 -0.001 -0.000 -0.000 -0.000  0.985
atomic mag. moment =    -4.252492
atom    7   Tr[ns(na)] (up, down, total) =   4.96688  0.75656  5.72345
   spin  1
    eigenvalues:
  0.983  0.992  0.993  0.997  1.001
    eigenvectors:
  0.000  0.000  0.000  1.000  0.000
  0.001  0.500  0.499  0.000  0.000
  0.001  0.500  0.499  0.000  0.000
  0.000  0.000  0.000  0.000  1.000
  0.998  0.000  0.002  0.000  0.000
    occupations:
  0.997  0.000  0.000 -0.000 -0.000
  0.000  0.993  0.000  0.000  0.000
  0.000  0.000  0.993 -0.000  0.000
 -0.000  0.000 -0.000  1.001 -0.000
 -0.000  0.000  0.000 -0.000  0.983
   spin  2
    eigenvalues:
  0.069  0.131  0.150  0.150  0.257
    eigenvectors:
  0.000  0.908  0.091  0.000  0.001
  0.000  0.046  0.444  0.500  0.010
  0.000  0.046  0.444  0.500  0.010
  0.999  0.000  0.000  0.001  0.000
  0.000  0.000  0.021  0.000  0.979
    occupations:
  0.133  0.004  0.004 -0.000 -0.003
  0.004  0.150  0.000  0.002 -0.011
  0.004  0.000  0.150 -0.002 -0.011
 -0.000  0.002 -0.002  0.069 -0.000
 -0.003 -0.011 -0.011 -0.000  0.255
atomic mag. moment =     4.210321
atom    8   Tr[ns(na)] (up, down, total) =   4.96894  0.74792  5.71686
   spin  1
    eigenvalues:
  0.984  0.993  0.994  0.997  1.002
    eigenvectors:
  0.002  0.009  0.000  0.989  0.000
  0.000  0.495  0.500  0.004  0.000
  0.000  0.495  0.500  0.004  0.000
  0.000  0.000  0.000  0.000  1.000
  0.997  0.000  0.000  0.002  0.000
    occupations:
  0.997 -0.000 -0.000 -0.000 -0.001
 -0.000  0.993 -0.000 -0.000  0.000
 -0.000 -0.000  0.993  0.000  0.000
 -0.000 -0.000  0.000  1.002 -0.000
 -0.001  0.000  0.000 -0.000  0.984
   spin  2
    eigenvalues:
  0.068  0.122  0.149  0.152  0.256
    eigenvectors:
  0.000  0.987  0.010  0.000  0.003
  0.000  0.005  0.492  0.500  0.003
  0.000  0.005  0.492  0.500  0.003
  1.000  0.000  0.000  0.000  0.000
  0.000  0.004  0.006  0.000  0.990
    occupations:
  0.122 -0.002 -0.002 -0.000  0.008
 -0.002  0.151 -0.001 -0.000  0.006
 -0.002 -0.001  0.151  0.000  0.006
 -0.000 -0.000  0.000  0.068 -0.000
  0.008  0.006  0.006 -0.000  0.255
atomic mag. moment =     4.221023
N of occupied +U levels =   45.680557
 --- exit write_ns ---

     Number of k-points >= 100: set verbosity='high' to print the bands.

     the Fermi energy is    15.5697 ev

!    total energy              =  -14693.94946319 Ry
     Harris-Foulkes estimate   =  -14693.94944839 Ry
     estimated scf accuracy    <       0.00000040 Ry

     total all-electron energy =   -626921.545185 Ry

     The total energy is the sum of the following terms:

     one-electron contribution =    -698.45806671 Ry
     hartree contribution      =     651.60930233 Ry
     xc contribution           =    -738.11976970 Ry
     ewald contribution        =   -2207.56121140 Ry
     Hubbard energy            =       0.45544299 Ry
     one-center paw contrib.   =  -11701.87516070 Ry

     total magnetization       =     8.52 Bohr mag/cell
     absolute magnetization    =    36.87 Bohr mag/cell

     convergence has been achieved in  20 iterations

     Writing output data file mnau2.save/

     General routines

     Parallel routines

     Hubbard U routines

      29h

   This run was terminated on:   2:54:21  29Mar2019

   JOB DONE.