     Program PWSCF v.6.3MaX starts on 29Mar2019 at 14:56:44

     R & G space division:  proc/nbgrp/npool/nimage =      32
     Waiting for input...
     Reading input from standard input

     Current dimensions of program PWSCF are:
     Max number of different atomic species (ntypx) = 10
     Max number of k-points (npk) =  40000
     Max angular momentum in pseudopotentials (lmaxx) =  3
     Message from routine read_upf::
     Pseudo file ./pseudo/Mn.pbe-spn-kjpaw_psl.0.3.1.UPF has been successfully fixed on the fly.
To avoid this message in the future you can permanently fix
 your pseudo files following instructions given in:
               file Mn.pbe-spn-kjpaw_psl.0.3.1.UPF: wavefunction(s)  3P 3D renormalized
     Message from routine read_upf::
     Pseudo file ./pseudo/Mn.pbe-spn-kjpaw_psl.0.3.1.UPF has been successfully fixed on the fly.
To avoid this message in the future you can permanently fix
 your pseudo files following instructions given in:
               file Mn.pbe-spn-kjpaw_psl.0.3.1.UPF: wavefunction(s)  3P 3D renormalized
     Message from routine read_upf::
     Pseudo file ./pseudo/Au.pbe-dn-kjpaw_psl.0.1.UPF has been successfully fixed on the fly.
To avoid this message in the future you can permanently fix
 your pseudo files following instructions given in:
               file Au.pbe-dn-kjpaw_psl.0.1.UPF: wavefunction(s)  6S 6P 5D renormalized

     bravais-lattice index     =            0
     lattice parameter (alat)  =      18.0125  a.u.
     unit-cell volume          =    2685.0513 (a.u.)^3
     number of atoms/cell      =           24
     number of atomic types    =            3
     number of electrons       =       296.00
     number of Kohn-Sham states=          178
     kinetic-energy cutoff     =      45.0000  Ry
     charge density cutoff     =     400.0000  Ry
     convergence threshold     =      1.0E-06
     mixing beta               =       0.1000
     number of iterations used =            8  plain     mixing
     Exchange-correlation      = SLA PW PBX PBC ( 1  4  3  4 0 0)

     celldm(1)=  18.012490  celldm(2)=   0.000000  celldm(3)=   0.000000
     celldm(4)=   0.000000  celldm(5)=   0.000000  celldm(6)=   0.000000

     crystal axes: (cart. coord. in units of alat)
               a(1) = (   0.707107  -0.707107   0.000000 )
               a(2) = (  -0.707107  -0.707107   0.000000 )
               a(3) = (   0.176777   0.176777  -0.459443 )

     reciprocal axes: (cart. coord. in units 2 pi/alat)
               b(1) = (  0.707107 -0.707107  0.000000 )
               b(2) = ( -0.707107 -0.707107 -0.544138 )
               b(3) = (  0.000000  0.000000 -2.176550 )

     PseudoPot. # 1 for Mn read from file:
     ./pseudo/Mn.pbe-spn-kjpaw_psl.0.3.1.UPF
     MD5 check sum: 7eef95dd2aae66803482eea66ebeebf1
     Pseudo is Projector augmented-wave + core cor, Zval = 15.0
     Generated using "atomic" code by A. Dal Corso v.5.0.99 svn rev. 10869
     Shape of augmentation charge: PSQ
     Using radial grid of 1187 points,  6 beta functions with:
                l(1) =   0
                l(2) =   0
                l(3) =   1
                l(4) =   1
                l(5) =   2
                l(6) =   2
     Q(r) pseudized with 0 coefficients

     PseudoPot. # 2 for Mn read from file:
     ./pseudo/Mn.pbe-spn-kjpaw_psl.0.3.1.UPF
     MD5 check sum: 7eef95dd2aae66803482eea66ebeebf1
     Pseudo is Projector augmented-wave + core cor, Zval = 15.0
     Generated using "atomic" code by A. Dal Corso v.5.0.99 svn rev. 10869
     Shape of augmentation charge: PSQ
     Using radial grid of 1187 points,  6 beta functions with:
                l(1) =   0
                l(2) =   0
                l(3) =   1
                l(4) =   1
                l(5) =   2
                l(6) =   2
     Q(r) pseudized with 0 coefficients

     PseudoPot. # 3 for Au read from file:
     ./pseudo/Au.pbe-dn-kjpaw_psl.0.1.UPF
     MD5 check sum: 5c9b92683623e7ae2ab3f8e525febab6
     Pseudo is Projector augmented-wave + core cor, Zval = 11.0
     Generated using "atomic" code by A. Dal Corso v.5.0.2 svn rev. 9415
     Shape of augmentation charge: PSQ
     Using radial grid of 1279 points,  6 beta functions with:
                l(1) =   0
                l(2) =   0
                l(3) =   1
                l(4) =   1
                l(5) =   2
                l(6) =   2
     Q(r) pseudized with 0 coefficients

     atomic species   valence    mass     pseudopotential
        Mn1           15.00    54.93800     Mn( 1.00)
        Mn2           15.00    54.93800     Mn( 1.00)
        Au            11.00   196.96600     Au( 1.00)

     Starting magnetic structure
     atomic species   magnetization
        Mn1          1.000
        Mn2         -1.000
        Au           0.000

     Full LDA+U calculation (l_max = 2) with parameters (eV):
     U(  1) =   3.1200   J(  1) =   0.7000   B(  1) =   0.0803
     U(  2) =   3.1200   J(  2) =   0.7000   B(  2) =   0.0803

      2 Sym. Ops., with inversion, found

   Cartesian axes

     site n.     atom                  positions (alat units)
         1           Mn1 tau(   1) = (   0.3535534  -0.3535534   0.0000000  )
         2           Mn1 tau(   2) = (   0.0000000   0.0000000   0.0000000  )
         3           Mn2 tau(   3) = (   0.0000000  -0.3535534   0.0000000  )
         4           Mn1 tau(   4) = (   0.3535534  -0.7071068   0.0000000  )
         5           Mn2 tau(   5) = (  -0.3535534  -0.3535534   0.0000000  )
         6           Mn1 tau(   6) = (   0.0000000  -0.7071068   0.0000000  )
         7           Mn1 tau(   7) = (  -0.3535534  -0.7071068   0.0000000  )
         8           Mn2 tau(   8) = (   0.0000000  -1.0606602   0.0000000  )
         9           Au  tau(   9) = (  -0.1767767  -0.1767767  -0.1470216  )
        10           Au  tau(  10) = (   0.1767767  -0.5303301  -0.1470216  )
        11           Au  tau(  11) = (  -0.1767767  -0.5303301  -0.1470216  )
        12           Au  tau(  12) = (   0.1767767  -0.8838835  -0.1470216  )
        13           Au  tau(  13) = (  -0.5303301  -0.5303301  -0.1470216  )
        14           Au  tau(  14) = (  -0.1767767  -0.8838835  -0.1470216  )
        15           Au  tau(  15) = (   0.5303301  -0.5303301  -0.1470216  )
        16           Au  tau(  16) = (   0.1767767  -0.1767767  -0.1470216  )
        17           Au  tau(  17) = (   0.3535534  -0.3535534  -0.3124210  )
        18           Au  tau(  18) = (   0.0000000   0.0000000  -0.3124210  )
        19           Au  tau(  19) = (   0.0000000  -0.3535534  -0.3124210  )
        20           Au  tau(  20) = (   0.3535534  -0.7071068  -0.3124210  )
        21           Au  tau(  21) = (  -0.3535534  -0.3535534  -0.3124210  )
        22           Au  tau(  22) = (  -0.0000000  -0.7071068  -0.3124210  )
        23           Au  tau(  23) = (  -0.3535534  -0.7071068  -0.3124210  )
        24           Au  tau(  24) = (   0.0000000  -1.0606602  -0.3124210  )

     number of k points=   260 (tetrahedron method)

     Number of k-points >= 100: set verbosity='high' to print them.

     Check: negative/imaginary core charge=   -0.000006    0.000000

     Initial potential from superposition of free atoms

     starting charge  295.99426, renormalised to  296.00000
     Number of +U iterations with fixed ns =  0
     Starting occupations:
 --- enter write_ns ---
 LDA+U parameters:
U(  1) =   3.1200   J(  1) =   0.7000   B(  1) =   0.0803
U(  2) =   3.1200   J(  2) =   0.7000   B(  2) =   0.0803
atom    1   Tr[ns(na)] (up, down, total) =   5.00000  0.00000  5.00000
   spin  1
    eigenvalues:
  1.000  1.000  1.000  1.000  1.000
    eigenvectors:
  1.000  0.000  0.000  0.000  0.000
  0.000  1.000  0.000  0.000  0.000
  0.000  0.000  1.000  0.000  0.000
  0.000  0.000  0.000  1.000  0.000
  0.000  0.000  0.000  0.000  1.000
    occupations:
  1.000  0.000  0.000  0.000  0.000
  0.000  1.000  0.000  0.000  0.000
  0.000  0.000  1.000  0.000  0.000
  0.000  0.000  0.000  1.000  0.000
  0.000  0.000  0.000  0.000  1.000
   spin  2
    eigenvalues:
  0.000  0.000  0.000  0.000  0.000
    eigenvectors:
  1.000  0.000  0.000  0.000  0.000
  0.000  1.000  0.000  0.000  0.000
  0.000  0.000  1.000  0.000  0.000
  0.000  0.000  0.000  1.000  0.000
  0.000  0.000  0.000  0.000  1.000
    occupations:
  0.000  0.000  0.000  0.000  0.000
  0.000  0.000  0.000  0.000  0.000
  0.000  0.000  0.000  0.000  0.000
  0.000  0.000  0.000  0.000  0.000
  0.000  0.000  0.000  0.000  0.000
atomic mag. moment =     5.000000
atom    2   Tr[ns(na)] (up, down, total) =   5.00000  0.00000  5.00000
   spin  1
    eigenvalues:
  1.000  1.000  1.000  1.000  1.000
    eigenvectors:
  1.000  0.000  0.000  0.000  0.000
  0.000  1.000  0.000  0.000  0.000
  0.000  0.000  1.000  0.000  0.000
  0.000  0.000  0.000  1.000  0.000
  0.000  0.000  0.000  0.000  1.000
    occupations:
  1.000  0.000  0.000  0.000  0.000
  0.000  1.000  0.000  0.000  0.000
  0.000  0.000  1.000  0.000  0.000
  0.000  0.000  0.000  1.000  0.000
  0.000  0.000  0.000  0.000  1.000
   spin  2
    eigenvalues:
  0.000  0.000  0.000  0.000  0.000
    eigenvectors:
  1.000  0.000  0.000  0.000  0.000
  0.000  1.000  0.000  0.000  0.000
  0.000  0.000  1.000  0.000  0.000
  0.000  0.000  0.000  1.000  0.000
  0.000  0.000  0.000  0.000  1.000
    occupations:
  0.000  0.000  0.000  0.000  0.000
  0.000  0.000  0.000  0.000  0.000
  0.000  0.000  0.000  0.000  0.000
  0.000  0.000  0.000  0.000  0.000
  0.000  0.000  0.000  0.000  0.000
atomic mag. moment =     5.000000
atom    3   Tr[ns(na)] (up, down, total) =   0.00000  5.00000  5.00000
   spin  1
    eigenvalues:
  0.000  0.000  0.000  0.000  0.000
    eigenvectors:
  1.000  0.000  0.000  0.000  0.000
  0.000  1.000  0.000  0.000  0.000
  0.000  0.000  1.000  0.000  0.000
  0.000  0.000  0.000  1.000  0.000
  0.000  0.000  0.000  0.000  1.000
    occupations:
  0.000  0.000  0.000  0.000  0.000
  0.000  0.000  0.000  0.000  0.000
  0.000  0.000  0.000  0.000  0.000
  0.000  0.000  0.000  0.000  0.000
  0.000  0.000  0.000  0.000  0.000
   spin  2
    eigenvalues:
  1.000  1.000  1.000  1.000  1.000
    eigenvectors:
  1.000  0.000  0.000  0.000  0.000
  0.000  1.000  0.000  0.000  0.000
  0.000  0.000  1.000  0.000  0.000
  0.000  0.000  0.000  1.000  0.000
  0.000  0.000  0.000  0.000  1.000
    occupations:
  1.000  0.000  0.000  0.000  0.000
  0.000  1.000  0.000  0.000  0.000
  0.000  0.000  1.000  0.000  0.000
  0.000  0.000  0.000  1.000  0.000
  0.000  0.000  0.000  0.000  1.000
atomic mag. moment =    -5.000000
atom    4   Tr[ns(na)] (up, down, total) =   5.00000  0.00000  5.00000
   spin  1
    eigenvalues:
  1.000  1.000  1.000  1.000  1.000
    eigenvectors:
  1.000  0.000  0.000  0.000  0.000
  0.000  1.000  0.000  0.000  0.000
  0.000  0.000  1.000  0.000  0.000
  0.000  0.000  0.000  1.000  0.000
  0.000  0.000  0.000  0.000  1.000
    occupations:
  1.000  0.000  0.000  0.000  0.000
  0.000  1.000  0.000  0.000  0.000
  0.000  0.000  1.000  0.000  0.000
  0.000  0.000  0.000  1.000  0.000
  0.000  0.000  0.000  0.000  1.000
   spin  2
    eigenvalues:
  0.000  0.000  0.000  0.000  0.000
    eigenvectors:
[...]
   spin  2
    eigenvalues:
  0.040  0.051  0.055  0.056  0.071
    eigenvectors:
  0.006  0.966  0.001  0.027  0.000
  0.000  0.004  0.967  0.027  0.003
  0.000  0.025  0.030  0.945  0.000
  0.994  0.006  0.000  0.000  0.000
  0.000  0.000  0.002  0.001  0.997
    occupations:
  0.051  0.000  0.001  0.001 -0.000
  0.000  0.055  0.000  0.000  0.001
  0.001  0.000  0.056 -0.000  0.000
  0.001  0.000 -0.000  0.040 -0.000
 -0.000  0.001  0.000 -0.000  0.071
atomic mag. moment =     4.740739
atom    5   Tr[ns(na)] (up, down, total) =   0.27604  5.01490  5.29093
   spin  1
    eigenvalues:
  0.041  0.052  0.055  0.056  0.072
    eigenvectors:
  0.020  0.947  0.003  0.030  0.000
  0.000  0.000  0.912  0.082  0.006
  0.000  0.033  0.080  0.886  0.000
  0.980  0.020  0.000  0.000  0.000
  0.000  0.000  0.005  0.001  0.994
    occupations:
  0.052  0.000  0.001  0.002 -0.000
  0.000  0.055  0.000 -0.000  0.001
  0.001  0.000  0.056 -0.000  0.000
  0.002 -0.000 -0.000  0.041  0.000
 -0.000  0.001  0.000  0.000  0.072
   spin  2
    eigenvalues:
  1.003  1.003  1.003  1.003  1.004
    eigenvectors:
  0.000  0.000  0.002  0.989  0.009
  0.007  0.000  0.991  0.002  0.000
  0.001  0.998  0.000  0.000  0.000
  0.000  0.000  0.000  0.009  0.991
  0.992  0.001  0.007  0.000  0.000
    occupations:
  1.003  0.000 -0.000 -0.000  0.000
  0.000  1.003 -0.000 -0.000  0.000
 -0.000 -0.000  1.003 -0.000  0.000
 -0.000 -0.000 -0.000  1.004 -0.000
  0.000  0.000  0.000 -0.000  1.003
atomic mag. moment =    -4.738861
atom    6   Tr[ns(na)] (up, down, total) =   5.01505  0.27357  5.28862
   spin  1
    eigenvalues:
  1.003  1.003  1.003  1.003  1.004
    eigenvectors:
  0.000  0.002  0.003  0.967  0.028
  0.008  0.106  0.884  0.001  0.001
  0.001  0.891  0.104  0.004  0.000
  0.000  0.001  0.000  0.028  0.971
  0.991  0.000  0.009  0.000  0.000
    occupations:
  1.003 -0.000 -0.000 -0.000 -0.000
 -0.000  1.003  0.000  0.000  0.000
 -0.000  0.000  1.003 -0.000  0.000
 -0.000  0.000 -0.000  1.004  0.000
 -0.000  0.000  0.000  0.000  1.003
   spin  2
    eigenvalues:
  0.041  0.051  0.054  0.056  0.072
    eigenvectors:
  0.036  0.927  0.004  0.033  0.001
  0.000  0.022  0.729  0.248  0.001
  0.000  0.015  0.267  0.716  0.001
  0.964  0.035  0.000  0.000  0.000
  0.000  0.000  0.000  0.003  0.997
    occupations:
  0.051 -0.001  0.001  0.002 -0.001
 -0.001  0.055 -0.001 -0.000  0.001
  0.001 -0.001  0.055 -0.000 -0.001
  0.002 -0.000 -0.000  0.042 -0.000
 -0.001  0.001 -0.001 -0.000  0.072
atomic mag. moment =     4.741475
atom    7   Tr[ns(na)] (up, down, total) =   5.01482  0.27409  5.28891
   spin  1
    eigenvalues:
  1.003  1.003  1.003  1.003  1.004
    eigenvectors:
  0.000  0.001  0.000  0.994  0.005
  0.001  0.147  0.851  0.001  0.000
  0.000  0.852  0.148  0.000  0.000
  0.000  0.000  0.000  0.005  0.995
  0.999  0.001  0.001  0.000  0.000
    occupations:
  1.003  0.000 -0.000 -0.000  0.000
  0.000  1.003  0.000  0.000  0.000
 -0.000  0.000  1.003  0.000 -0.000
 -0.000  0.000  0.000  1.004 -0.000
  0.000  0.000 -0.000 -0.000  1.003
   spin  2
    eigenvalues:
  0.040  0.051  0.055  0.056  0.071
    eigenvectors:
  0.006  0.966  0.001  0.027  0.000
  0.000  0.004  0.967  0.027  0.003
  0.000  0.025  0.030  0.945  0.000
  0.994  0.006  0.000  0.000  0.000
  0.000  0.000  0.002  0.001  0.997
    occupations:
  0.051  0.000  0.001  0.001 -0.000
  0.000  0.055  0.000  0.000  0.001
  0.001  0.000  0.056 -0.000  0.000
  0.001  0.000 -0.000  0.040 -0.000
 -0.000  0.001  0.000 -0.000  0.071
atomic mag. moment =     4.740739
atom    8   Tr[ns(na)] (up, down, total) =   0.27777  5.01471  5.29248
   spin  1
    eigenvalues:
  0.042  0.053  0.055  0.056  0.072
    eigenvectors:
  0.007  0.964  0.001  0.028  0.000
  0.000  0.000  0.902  0.094  0.004
  0.000  0.029  0.094  0.876  0.001
  0.993  0.007  0.000  0.000  0.000
  0.000  0.000  0.003  0.002  0.995
    occupations:
  0.053  0.000  0.001  0.001 -0.000
  0.000  0.055  0.000  0.000  0.001
  0.001  0.000  0.056 -0.000  0.000
  0.001  0.000 -0.000  0.042 -0.000
 -0.000  0.001  0.000 -0.000  0.072
   spin  2
    eigenvalues:
  1.003  1.003  1.003  1.003  1.003
    eigenvectors:
  0.000  0.000  0.000  0.993  0.006
  0.002  0.047  0.951  0.000  0.000
  0.000  0.953  0.047  0.000  0.000
  0.000  0.000  0.000  0.006  0.994
  0.998  0.000  0.002  0.000  0.000
    occupations:
  1.003 -0.000 -0.000 -0.000 -0.000
 -0.000  1.003  0.000 -0.000  0.000
 -0.000  0.000  1.003  0.000 -0.000
 -0.000 -0.000  0.000  1.003 -0.000
 -0.000  0.000 -0.000 -0.000  1.003
atomic mag. moment =    -4.736948
N of occupied +U levels =   42.322777
 --- exit write_ns ---

     total energy              =  -14679.21061559 Ry
     Harris-Foulkes estimate   =  -14669.85271538 Ry
     estimated scf accuracy    <      21.27998402 Ry

     total magnetization       =    10.50 Bohr mag/cell
     absolute magnetization    =    43.48 Bohr mag/cell

     iteration #  2     ecut=    45.00 Ry     beta= 0.10
     Davidson diagonalization with overlap
     ethr =  7.19E-03,  avg # of iterations =  1.0

[...]

     total energy              =  -14693.94110787 Ry
     Harris-Foulkes estimate   =  -14693.94110455 Ry
     estimated scf accuracy    <       0.00000407 Ry

[...]

     iteration # 20     ecut=    45.00 Ry     beta= 0.10
     Davidson diagonalization with overlap
     ethr =  1.37E-09,  avg # of iterations =  2.4

     Magnetic moment per site:
     atom:    1    charge:   13.5444    magn:    4.1995    constr:    0.0000
     atom:    2    charge:   13.5419    magn:    4.2282    constr:    0.0000
     atom:    3    charge:   13.5322    magn:   -4.2779    constr:    0.0000
     atom:    4    charge:   13.5416    magn:    4.2149    constr:    0.0000
     atom:    5    charge:   13.5376    magn:   -4.2398    constr:    0.0000
     atom:    6    charge:   13.5398    magn:    4.2223    constr:    0.0000
     atom:    7    charge:   13.5416    magn:    4.2149    constr:    0.0000
     atom:    8    charge:   13.5322    magn:   -4.2779    constr:    0.0000
     atom:    9    charge:    9.0920    magn:   -0.0147    constr:    0.0000
     atom:   10    charge:    9.0916    magn:    0.0200    constr:    0.0000
     atom:   11    charge:    9.0932    magn:    0.0046    constr:    0.0000
     atom:   12    charge:    9.0911    magn:   -0.0131    constr:    0.0000
     atom:   13    charge:    9.0918    magn:   -0.0002    constr:    0.0000
     atom:   14    charge:    9.0915    magn:    0.0171    constr:    0.0000
     atom:   15    charge:    9.0940    magn:    0.0261    constr:    0.0000
     atom:   16    charge:    9.0915    magn:    0.0075    constr:    0.0000
     atom:   17    charge:    9.0915    magn:    0.0171    constr:    0.0000
     atom:   18    charge:    9.0918    magn:   -0.0002    constr:    0.0000
     atom:   19    charge:    9.0911    magn:   -0.0131    constr:    0.0000
     atom:   20    charge:    9.0932    magn:    0.0046    constr:    0.0000
     atom:   21    charge:    9.0920    magn:   -0.0147    constr:    0.0000
     atom:   22    charge:    9.0916    magn:    0.0200    constr:    0.0000
     atom:   23    charge:    9.0940    magn:    0.0261    constr:    0.0000
     atom:   24    charge:    9.0915    magn:    0.0075    constr:    0.0000

     End of self-consistent calculation
 --- enter write_ns ---
 LDA+U parameters:
U(  1) =   3.1200   J(  1) =   0.7000   B(  1) =   0.0803
U(  2) =   3.1200   J(  2) =   0.7000   B(  2) =   0.0803
atom    1   Tr[ns(na)] (up, down, total) =   4.96460  0.76621  5.73081
   spin  1
    eigenvalues:
  0.981  0.992  0.993  0.997  1.001
    eigenvectors:
  0.000  0.008  0.006  0.976  0.010
  0.000  0.747  0.251  0.001  0.000
  0.003  0.244  0.740  0.013  0.001
  0.000  0.000  0.001  0.009  0.989
  0.996  0.001  0.002  0.000  0.000
    occupations:
  0.997 -0.000  0.000  0.000 -0.000
 -0.000  0.992  0.000 -0.000 -0.000
  0.000  0.000  0.993 -0.000  0.001
  0.000 -0.000 -0.000  1.001 -0.000
 -0.000 -0.000  0.001 -0.000  0.981
   spin  2
    eigenvalues:
  0.069  0.134  0.137  0.156  0.269
    eigenvectors:
  0.000  0.944  0.009  0.044  0.002
  0.000  0.018  0.944  0.019  0.019
  0.002  0.036  0.027  0.934  0.000
  0.997  0.001  0.000  0.002  0.000
  0.000  0.001  0.020  0.001  0.979
    occupations:
  0.135  0.002  0.004  0.001 -0.006
  0.002  0.140  0.002 -0.001 -0.018
  0.004  0.002  0.155 -0.004  0.001
  0.001 -0.001 -0.004  0.069  0.000
 -0.006 -0.018  0.001  0.000  0.267
atomic mag. moment =     4.198394
atom    2   Tr[ns(na)] (up, down, total) =   4.96898  0.74376  5.71274
   spin  1
    eigenvalues:
  0.984  0.993  0.994  0.997  1.002
    eigenvectors:
  0.002  0.014  0.018  0.955  0.012
  0.001  0.358  0.639  0.002  0.000
  0.002  0.625  0.343  0.028  0.002
  0.000  0.001  0.000  0.013  0.985
  0.995  0.002  0.000  0.002  0.000
    occupations:
  0.997  0.000 -0.001 -0.000 -0.001
  0.000  0.993 -0.001  0.000  0.000
 -0.001 -0.001  0.993  0.000  0.000
 -0.000  0.000  0.000  1.002 -0.000
 -0.001  0.000  0.000 -0.000  0.984
   spin  2
    eigenvalues:
  0.069  0.119  0.142  0.152  0.261
    eigenvectors:
  0.000  0.993  0.000  0.003  0.004
  0.001  0.001  0.090  0.888  0.021
  0.001  0.001  0.902  0.094  0.002
  0.999  0.000  0.000  0.001  0.000
  0.000  0.004  0.008  0.014  0.974
    occupations:
  0.120 -0.000 -0.001  0.000  0.009
 -0.000  0.153  0.002  0.002  0.016
 -0.001  0.002  0.143  0.002 -0.005
  0.000  0.002  0.002  0.069 -0.000
  0.009  0.016 -0.005 -0.000  0.258
atomic mag. moment =     4.225220
atom    3   Tr[ns(na)] (up, down, total) =   0.70275  4.97363  5.67638
   spin  1
    eigenvalues:
  0.071  0.119  0.143  0.145  0.225
    eigenvectors:
  0.000  0.994  0.000  0.005  0.000
  0.000  0.001  0.725  0.217  0.057
  0.001  0.005  0.248  0.735  0.010
  0.998  0.000  0.001  0.001  0.000
  0.000  0.000  0.025  0.042  0.933
    occupations:
  0.119 -0.001 -0.002 -0.001  0.000
 -0.001  0.148  0.003 -0.001  0.019
 -0.002  0.003  0.145  0.003  0.008
 -0.001 -0.001  0.003  0.071 -0.000
  0.000  0.019  0.008 -0.000  0.220
   spin  2
    eigenvalues:
  0.988  0.993  0.994  0.997  1.002
    eigenvectors:
  0.000  0.001  0.014  0.981  0.003
  0.002  0.589  0.406  0.002  0.000
  0.006  0.409  0.571  0.013  0.001
  0.000  0.001  0.000  0.004  0.995
  0.992  0.000  0.008  0.000  0.000
    occupations:
  0.997 -0.000 -0.000 -0.000  0.000
 -0.000  0.993  0.000 -0.000 -0.000
 -0.000  0.000  0.994  0.000 -0.000
 -0.000 -0.000  0.000  1.002  0.000
  0.000 -0.000 -0.000  0.000  0.988
atomic mag. moment =    -4.270873
atom    4   Tr[ns(na)] (up, down, total) =   4.96711  0.75161  5.71871
   spin  1
    eigenvalues:
  0.984  0.992  0.992  0.997  1.002
    eigenvectors:
  0.000  0.011  0.007  0.979  0.003
  0.001  0.019  0.975  0.005  0.000
  0.001  0.967  0.017  0.013  0.002
  0.000  0.002  0.000  0.003  0.994
  0.998  0.001  0.002  0.000  0.000
    occupations:
  0.997 -0.000 -0.001 -0.000  0.000
 -0.000  0.993  0.000 -0.000  0.000
 -0.001  0.000  0.992  0.000  0.000
 -0.000 -0.000  0.000  1.002 -0.000
  0.000  0.000  0.000 -0.000  0.984
   spin  2
    eigenvalues:
  0.068  0.119  0.149  0.152  0.264
    eigenvectors:
  0.000  0.991  0.004  0.004  0.000
  0.000  0.001  0.127  0.858  0.014
  0.001  0.007  0.868  0.124  0.001
  0.999  0.000  0.001  0.000  0.000
  0.000  0.001  0.000  0.014  0.985
    occupations:
  0.120 -0.001 -0.002  0.000  0.003
 -0.001  0.153  0.002 -0.001  0.013
 -0.002  0.002  0.149  0.002  0.003
  0.000 -0.001  0.002  0.068 -0.000
  0.003  0.013  0.003 -0.000  0.262
atomic mag. moment =     4.215496
atom    5   Tr[ns(na)] (up, down, total) =   0.73215  4.96834  5.70049
   spin  1
    eigenvalues:
  0.070  0.121  0.143  0.144  0.255
    eigenvectors:
  0.000  0.997  0.000  0.003  0.000
  0.000  0.003  0.045  0.911  0.041
  0.001  0.001  0.950  0.048  0.000
  0.999  0.000  0.001  0.000  0.000
  0.000  0.000  0.004  0.038  0.958
    occupations:
  0.121  0.002  0.001 -0.000  0.003
  0.002  0.149 -0.000  0.000  0.022
  0.001 -0.000  0.143  0.002 -0.002
 -0.000  0.000  0.002  0.070  0.000
  0.003  0.022 -0.002  0.000  0.250
   spin  2
    eigenvalues:
  0.984  0.992  0.993  0.997  1.002
    eigenvectors:
  0.000  0.010  0.025  0.954  0.010
  0.000  0.458  0.540  0.003  0.000
  0.000  0.532  0.435  0.032  0.002
  0.000  0.000  0.000  0.011  0.988
  0.999  0.000  0.000  0.000  0.000
    occupations:
  0.997 -0.000 -0.001 -0.000 -0.000
 -0.000  0.993  0.000  0.000 -0.000
 -0.001  0.000  0.993  0.000 -0.000
 -0.000  0.000  0.000  1.002  0.000
 -0.000 -0.000 -0.000  0.000  0.984
atomic mag. moment =    -4.236196
atom    6   Tr[ns(na)] (up, down, total) =   4.96776  0.74326  5.71101
   spin  1
    eigenvalues:
  0.983  0.992  0.993  0.997  1.002
    eigenvectors:
  0.000  0.002  0.007  0.976  0.014
  0.011  0.347  0.632  0.009  0.000
  0.000  0.646  0.351  0.000  0.002
  0.000  0.001  0.002  0.014  0.984
  0.989  0.003  0.008  0.000  0.000
    occupations:
  0.997  0.000 -0.000 -0.001  0.000
  0.000  0.993  0.001  0.000  0.001
 -0.000  0.001  0.992  0.000  0.000
 -0.001  0.000  0.000  1.002  0.000
  0.000  0.001  0.000  0.000  0.984
   spin  2
    eigenvalues:
  0.069  0.123  0.142  0.153  0.256
    eigenvectors:
  0.000  0.926  0.028  0.027  0.019
  0.001  0.023  0.002  0.971  0.003
  0.001  0.025  0.963  0.000  0.011
  0.998  0.000  0.001  0.001  0.000
  0.000  0.026  0.006  0.001  0.967
    occupations:
  0.127  0.004 -0.001 -0.000 -0.018
  0.004  0.153 -0.000  0.002  0.006
 -0.001 -0.000  0.142  0.002 -0.012
 -0.000  0.002  0.002  0.069  0.000
 -0.018  0.006 -0.012  0.000  0.252
atomic mag. moment =     4.224502
atom    7   Tr[ns(na)] (up, down, total) =   4.96711  0.75161  5.71871
   spin  1
    eigenvalues:
  0.984  0.992  0.992  0.997  1.002
    eigenvectors:
  0.000  0.011  0.007  0.979  0.003
  0.001  0.019  0.975  0.005  0.000
  0.001  0.967  0.017  0.013  0.002
  0.000  0.002  0.000  0.003  0.994
  0.998  0.001  0.002  0.000  0.000
    occupations:
  0.997 -0.000 -0.001 -0.000  0.000
 -0.000  0.993  0.000 -0.000  0.000
 -0.001  0.000  0.992  0.000  0.000
 -0.000 -0.000  0.000  1.002 -0.000
  0.000  0.000  0.000 -0.000  0.984
   spin  2
    eigenvalues:
  0.068  0.119  0.149  0.152  0.264
    eigenvectors:
  0.000  0.991  0.004  0.004  0.000
  0.000  0.001  0.127  0.858  0.014
  0.001  0.007  0.868  0.124  0.001
  0.999  0.000  0.001  0.000  0.000
  0.000  0.001  0.000  0.014  0.985
    occupations:
  0.120 -0.001 -0.002  0.000  0.003
 -0.001  0.153  0.002 -0.001  0.013
 -0.002  0.002  0.149  0.002  0.003
  0.000 -0.001  0.002  0.068 -0.000
  0.003  0.013  0.003 -0.000  0.262
atomic mag. moment =     4.215496
atom    8   Tr[ns(na)] (up, down, total) =   0.70275  4.97363  5.67638
   spin  1
    eigenvalues:
  0.071  0.119  0.143  0.145  0.225
    eigenvectors:
  0.000  0.994  0.000  0.005  0.000
  0.000  0.001  0.725  0.217  0.057
  0.001  0.005  0.248  0.735  0.010
  0.998  0.000  0.001  0.001  0.000
  0.000  0.000  0.025  0.042  0.933
    occupations:
  0.119 -0.001 -0.002 -0.001  0.000
 -0.001  0.148  0.003 -0.001  0.019
 -0.002  0.003  0.145  0.003  0.008
 -0.001 -0.001  0.003  0.071 -0.000
  0.000  0.019  0.008 -0.000  0.220
   spin  2
    eigenvalues:
  0.988  0.993  0.994  0.997  1.002
    eigenvectors:
  0.000  0.001  0.014  0.981  0.003
  0.002  0.589  0.406  0.002  0.000
  0.006  0.409  0.571  0.013  0.001
  0.000  0.001  0.000  0.004  0.995
  0.992  0.000  0.008  0.000  0.000
    occupations:
  0.997 -0.000 -0.000 -0.000  0.000
 -0.000  0.993  0.000 -0.000 -0.000
 -0.000  0.000  0.994  0.000 -0.000
 -0.000 -0.000  0.000  1.002  0.000
  0.000 -0.000 -0.000  0.000  0.988
atomic mag. moment =    -4.270873
N of occupied +U levels =   45.645235
 --- exit write_ns ---

     Number of k-points >= 100: set verbosity='high' to print the bands.

     the Fermi energy is    15.5970 ev

!    total energy              =  -14693.94112221 Ry
     Harris-Foulkes estimate   =  -14693.94110784 Ry
     estimated scf accuracy    <       0.00000061 Ry

     total all-electron energy =   -626921.536844 Ry

     The total energy is the sum of the following terms:

     one-electron contribution =    -698.43537756 Ry
     hartree contribution      =     651.60580865 Ry
     xc contribution           =    -738.12526971 Ry
     ewald contribution        =   -2207.56121140 Ry
     Hubbard energy            =       0.45255909 Ry
     one-center paw contrib.   =  -11701.87763128 Ry

     total magnetization       =     8.48 Bohr mag/cell
     absolute magnetization    =    36.79 Bohr mag/cell

     convergence has been achieved in  20 iterations

     Writing output data file mnau2.save/

     General routines

     Parallel routines

     Hubbard U routines

       8h

   This run was terminated on:  18: 5: 1  29Mar2019

   JOB DONE.