     Program PWSCF v.6.3 starts on 14Feb2019 at 15:33:10

     R & G space division:  proc/nbgrp/npool/nimage =      16
     Waiting for input...
     Reading input from standard input

     Current dimensions of program PWSCF are:
     Max number of different atomic species (ntypx) = 10
     Max number of k-points (npk) =  40000
     Max angular momentum in pseudopotentials (lmaxx) =  3
     Message from routine read_upf::
     Pseudo file ./pseudo/Mn.pbe-spn-kjpaw_psl.0.3.1.UPF has been successfully fixed on the fly.
To avoid this message in the future you can permanently fix
 your pseudo files following instructions given in:
               file Mn.pbe-spn-kjpaw_psl.0.3.1.UPF: wavefunction(s)  3P 3D renormalized
     Message from routine read_upf::
     Pseudo file ./pseudo/Mn.pbe-spn-kjpaw_psl.0.3.1.UPF has been successfully fixed on the fly.
To avoid this message in the future you can permanently fix
 your pseudo files following instructions given in:
               file Mn.pbe-spn-kjpaw_psl.0.3.1.UPF: wavefunction(s)  3P 3D renormalized
     Message from routine read_upf::
     Pseudo file ./pseudo/Au.pbe-dn-kjpaw_psl.0.1.UPF has been successfully fixed on the fly.
To avoid this message in the future you can permanently fix
 your pseudo files following instructions given in:
               file Au.pbe-dn-kjpaw_psl.0.1.UPF: wavefunction(s)  6S 6P 5D renormalized

     bravais-lattice index     =            0
     lattice parameter (alat)  =       6.4153  a.u.
     unit-cell volume          =     690.6834 (a.u.)^3
     number of atoms/cell      =            6
     number of atomic types    =            3
     number of electrons       =        74.00
     number of Kohn-Sham states=           44
     kinetic-energy cutoff     =      45.0000  Ry
     charge density cutoff     =     300.0000  Ry
     convergence threshold     =      1.0E-06
     mixing beta               =       0.1000
     number of iterations used =            8  plain     mixing
     Exchange-correlation      = SLA PW PBX PBC ( 1  4  3  4 0 0)

     celldm(1)=   6.415316  celldm(2)=   0.000000  celldm(3)=   0.000000
     celldm(4)=   0.000000  celldm(5)=   0.000000  celldm(6)=   0.000000

     crystal axes: (cart. coord. in units of alat)
               a(1) = (   1.000000   0.000000   0.000000 )
               a(2) = (   0.000000   1.000000   0.000000 )
               a(3) = (   0.000000   0.000000   2.615923 )

     reciprocal axes: (cart. coord. in units 2 pi/alat)
               b(1) = (  1.000000  0.000000  0.000000 )
               b(2) = (  0.000000  1.000000  0.000000 )
               b(3) = (  0.000000  0.000000  0.382274 )

     PseudoPot. # 1 for Mn read from file:
     ./pseudo/Mn.pbe-spn-kjpaw_psl.0.3.1.UPF
     MD5 check sum: 7eef95dd2aae66803482eea66ebeebf1
     Pseudo is Projector augmented-wave + core cor, Zval = 15.0
     Generated using "atomic" code by A. Dal Corso v.5.0.99 svn rev. 10869
     Shape of augmentation charge: PSQ
     Using radial grid of 1187 points,  6 beta functions with:
                l(1) =   0
                l(2) =   0
                l(3) =   1
                l(4) =   1
                l(5) =   2
                l(6) =   2
     Q(r) pseudized with 0 coefficients

     PseudoPot. # 2 for Mn read from file:
     ./pseudo/Mn.pbe-spn-kjpaw_psl.0.3.1.UPF
     MD5 check sum: 7eef95dd2aae66803482eea66ebeebf1
     Pseudo is Projector augmented-wave + core cor, Zval = 15.0
     Generated using "atomic" code by A. Dal Corso v.5.0.99 svn rev. 10869
     Shape of augmentation charge: PSQ
     Using radial grid of 1187 points,  6 beta functions with:
                l(1) =   0
                l(2) =   0
                l(3) =   1
                l(4) =   1
                l(5) =   2
                l(6) =   2
     Q(r) pseudized with 0 coefficients

     PseudoPot. # 3 for Au read from file:
     ./pseudo/Au.pbe-dn-kjpaw_psl.0.1.UPF
     MD5 check sum: 5c9b92683623e7ae2ab3f8e525febab6
     Pseudo is Projector augmented-wave + core cor, Zval = 11.0
     Generated using "atomic" code by A. Dal Corso v.5.0.2 svn rev. 9415
     Shape of augmentation charge: PSQ
     Using radial grid of 1279 points,  6 beta functions with:
                l(1) =   0
                l(2) =   0
                l(3) =   1
                l(4) =   1
                l(5) =   2
                l(6) =   2
     Q(r) pseudized with 0 coefficients

     atomic species   valence    mass     pseudopotential
        Mn1           15.00    54.93800     Mn( 1.00)
        Mn2           15.00    54.93800     Mn( 1.00)
        Au            11.00   196.96600     Au( 1.00)

     Starting magnetic structure
     atomic species   magnetization
        Mn1          1.000
        Mn2          1.000
        Au           0.000

     16 Sym. Ops., with inversion, found

   Cartesian axes

     site n.     atom                  positions (alat units)
         1           Mn1 tau(   1) = (   0.0000000   0.0000000   0.0000000  )
         2           Mn2 tau(   2) = (   0.5000000   0.5000000   1.3079613  )
         3           Au  tau(   3) = (   0.5000000   0.5000000   2.1982094  )
         4           Au  tau(   4) = (   0.5000000   0.5000000   0.4177131  )
         5           Au  tau(   5) = (   0.0000000   0.0000000   0.8902482  )
         6           Au  tau(   6) = (   0.0000000   0.0000000   1.7256744  )

     number of k points=    75 (tetrahedron method)
                       cart. coord. in units 2pi/alat
        k(    1) = (   0.0000000   0.0000000   0.0000000), wk =   0.0019531
        k(    2) = (   0.0000000   0.0000000   0.0477843), wk =   0.0039062
        k(    3) = (   0.0000000   0.0000000   0.0955686), wk =   0.0039062
        k(    4) = (   0.0000000   0.0000000   0.1433529), wk =   0.0039062
        k(    5) = (   0.0000000   0.0000000  -0.1911372), wk =   0.0019531
        k(    6) = (   0.0000000   0.1250000   0.0000000), wk =   0.0078125
        k(    7) = (   0.0000000   0.1250000   0.0477843), wk =   0.0156250
        k(    8) = (   0.0000000   0.1250000   0.0955686), wk =   0.0156250
        k(    9) = (   0.0000000   0.1250000   0.1433529), wk =   0.0156250
        k(   10) = (   0.0000000   0.1250000  -0.1911372), wk =   0.0078125
        k(   11) = (   0.0000000   0.2500000   0.0000000), wk =   0.0078125
        k(   12) = (   0.0000000   0.2500000   0.0477843), wk =   0.0156250
        k(   13) = (   0.0000000   0.2500000   0.0955686), wk =   0.0156250
        k(   14) = (   0.0000000   0.2500000   0.1433529), wk =   0.0156250
        k(   15) = (   0.0000000   0.2500000  -0.1911372), wk =   0.0078125
        k(   16) = (   0.0000000   0.3750000   0.0000000), wk =   0.0078125
        k(   17) = (   0.0000000   0.3750000   0.0477843), wk =   0.0156250
        k(   18) = (   0.0000000   0.3750000   0.0955686), wk =   0.0156250
        k(   19) = (   0.0000000   0.3750000   0.1433529), wk =   0.0156250
        k(   20) = (   0.0000000   0.3750000  -0.1911372), wk =   0.0078125
        k(   21) = (   0.0000000  -0.5000000   0.0000000), wk =   0.0039062
        k(   22) = (   0.0000000  -0.5000000   0.0477843), wk =   0.0078125
        k(   23) = (   0.0000000  -0.5000000   0.0955686), wk =   0.0078125
        k(   24) = (   0.0000000  -0.5000000   0.1433529), wk =   0.0078125
        k(   25) = (   0.0000000  -0.5000000  -0.1911372), wk =   0.0039062
        k(   26) = (   0.1250000   0.1250000   0.0000000), wk =   0.0078125
        k(   27) = (   0.1250000   0.1250000   0.0477843), wk =   0.0156250
        k(   28) = (   0.1250000   0.1250000   0.0955686), wk =   0.0156250
        k(   29) = (   0.1250000   0.1250000   0.1433529), wk =   0.0156250
        k(   30) = (   0.1250000   0.1250000  -0.1911372), wk =   0.0078125
        k(   31) = (   0.1250000   0.2500000   0.0000000), wk =   0.0156250
        k(   32) = (   0.1250000   0.2500000   0.0477843), wk =   0.0312500
        k(   33) = (   0.1250000   0.2500000   0.0955686), wk =   0.0312500
        k(   34) = (   0.1250000   0.2500000   0.1433529), wk =   0.0312500
        k(   35) = (   0.1250000   0.2500000  -0.1911372), wk =   0.0156250
        k(   36) = (   0.1250000   0.3750000   0.0000000), wk =   0.0156250
        k(   37) = (   0.1250000   0.3750000   0.0477843), wk =   0.0312500
        k(   38) = (   0.1250000   0.3750000   0.0955686), wk =   0.0312500
        k(   39) = (   0.1250000   0.3750000   0.1433529), wk =   0.0312500
        k(   40) = (   0.1250000   0.3750000  -0.1911372), wk =   0.0156250
        k(   41) = (   0.1250000  -0.5000000   0.0000000), wk =   0.0078125
        k(   42) = (   0.1250000  -0.5000000   0.0477843), wk =   0.0156250
        k(   43) = (   0.1250000  -0.5000000   0.0955686), wk =   0.0156250
        k(   44) = (   0.1250000  -0.5000000   0.1433529), wk =   0.0156250
        k(   45) = (   0.1250000  -0.5000000  -0.1911372), wk =   0.0078125
        k(   46) = (   0.2500000   0.2500000   0.0000000), wk =   0.0078125
        k(   47) = (   0.2500000   0.2500000   0.0477843), wk =   0.0156250
        k(   48) = (   0.2500000   0.2500000   0.0955686), wk =   0.0156250
        k(   49) = (   0.2500000   0.2500000   0.1433529), wk =   0.0156250
        k(   50) = (   0.2500000   0.2500000  -0.1911372), wk =   0.0078125
        k(   51) = (   0.2500000   0.3750000   0.0000000), wk =   0.0156250
        k(   52) = (   0.2500000   0.3750000   0.0477843), wk =   0.0312500
        k(   53) = (   0.2500000   0.3750000   0.0955686), wk =   0.0312500
        k(   54) = (   0.2500000   0.3750000   0.1433529), wk =   0.0312500
        k(   55) = (   0.2500000   0.3750000  -0.1911372), wk =   0.0156250
        k(   56) = (   0.2500000  -0.5000000   0.0000000), wk =   0.0078125
        k(   57) = (   0.2500000  -0.5000000   0.0477843), wk =   0.0156250
        k(   58) = (   0.2500000  -0.5000000   0.0955686), wk =   0.0156250
        k(   59) = (   0.2500000  -0.5000000   0.1433529), wk =   0.0156250
        k(   60) = (   0.2500000  -0.5000000  -0.1911372), wk =   0.0078125
        k(   61) = (   0.3750000   0.3750000   0.0000000), wk =   0.0078125
        k(   62) = (   0.3750000   0.3750000   0.0477843), wk =   0.0156250
        k(   63) = (   0.3750000   0.3750000   0.0955686), wk =   0.0156250
        k(   64) = (   0.3750000   0.3750000   0.1433529), wk =   0.0156250
        k(   65) = (   0.3750000   0.3750000  -0.1911372), wk =   0.0078125
        k(   66) = (   0.3750000  -0.5000000   0.0000000), wk =   0.0078125
        k(   67) = (   0.3750000  -0.5000000   0.0477843), wk =   0.0156250
        k(   68) = (   0.3750000  -0.5000000   0.0955686), wk =   0.0156250
        k(   69) = (   0.3750000  -0.5000000   0.1433529), wk =   0.0156250
        k(   70) = (   0.3750000  -0.5000000  -0.1911372), wk =   0.0078125
        k(   71) = (  -0.5000000  -0.5000000   0.0000000), wk =   0.0019531
        k(   72) = (  -0.5000000  -0.5000000   0.0477843), wk =   0.0039062
        k(   73) = (  -0.5000000  -0.5000000   0.0955686), wk =   0.0039062
        k(   74) = (  -0.5000000  -0.5000000   0.1433529), wk =   0.0039062
        k(   75) = (  -0.5000000  -0.5000000  -0.1911372), wk =   0.0019531

     Check: negative/imaginary core charge=   -0.000007    0.000000

     Initial potential from superposition of free atoms

     starting charge   73.99857, renormalised to   74.00000
     Starting wfcs are   56 randomized atomic wfcs
     Checking if some PAW data can be deallocated...

     Self-consistent Calculation

     iteration #  1     ecut=    45.00 Ry     beta= 0.10
     Davidson diagonalization with overlap
     ethr =  1.00E-02,  avg # of iterations =  3.0

     Warning: ef = 15.823598 is above the highest band at k-point  18
              e  =  15.739088

[...]

     total energy              =   -3669.84315069 Ry
     Harris-Foulkes estimate   =   -3667.59515295 Ry
     estimated scf accuracy    <       5.32507349 Ry

     total magnetization       =    10.44 Bohr mag/cell
     absolute magnetization    =    10.79 Bohr mag/cell

[...]

     total energy              =   -3673.63720732 Ry
     Harris-Foulkes estimate   =   -3673.63720712 Ry
     estimated scf accuracy    <       0.00000124 Ry

[...]

     iteration # 30     ecut=    45.00 Ry     beta= 0.10
     Davidson diagonalization with overlap
     ethr =  1.68E-09,  avg # of iterations =  1.0

[...]

     Warning: ef = 14.746461 is above the highest band at k-point  41
              e  =  14.614207

     Magnetic moment per site:
     atom:    1    charge:   13.5860    magn:    3.9153    constr:    0.0000
     atom:    2    charge:   13.5860    magn:    3.9159    constr:    0.0000
     atom:    3    charge:    9.1164    magn:    0.0423    constr:    0.0000
     atom:    4    charge:    9.1164    magn:    0.0423    constr:    0.0000
     atom:    5    charge:    9.1167    magn:    0.0429    constr:    0.0000
     atom:    6    charge:    9.1167    magn:    0.0429    constr:    0.0000

     End of self-consistent calculation

     Number of k-points >= 100: set verbosity='high' to print the bands.

     the Fermi energy is    14.7465 ev

!    total energy              =   -3673.63720711 Ry
     Harris-Foulkes estimate   =   -3673.63720634 Ry
     estimated scf accuracy    <       0.00000060 Ry

     total all-electron energy =   -156730.536138 Ry

     The total energy is the sum of the following terms:

     one-electron contribution =    -182.95160670 Ry
     hartree contribution      =     165.58610274 Ry
     xc contribution           =    -184.27452660 Ry
     ewald contribution        =    -546.58413949 Ry
     one-center paw contrib.   =   -2925.41303707 Ry

     total magnetization       =     8.02 Bohr mag/cell
     absolute magnetization    =     8.68 Bohr mag/cell

     convergence has been achieved in  30 iterations

     Writing output data file mnau2.save/

     General routines

     Parallel routines

   This run was terminated on:  15:36:51  14Feb2019

   JOB DONE.