     Program PWSCF v.6.3 starts on 18Feb2019 at 16:49:18

     R & G space division:  proc/nbgrp/npool/nimage =      16
     Waiting for input...
     Reading input from standard input

     Current dimensions of program PWSCF are:
     Max number of different atomic species (ntypx) = 10
     Max number of k-points (npk) =  40000
     Max angular momentum in pseudopotentials (lmaxx) =  3
     Message from routine read_upf::
     Pseudo file ./pseudo/Mn.pbe-spn-kjpaw_psl.0.3.1.UPF has been successfully fixed on the fly.
To avoid this message in the future you can permanently fix
 your pseudo files following instructions given in:
               file Mn.pbe-spn-kjpaw_psl.0.3.1.UPF: wavefunction(s)  3P 3D renormalized
     Message from routine read_upf::
     Pseudo file ./pseudo/Mn.pbe-spn-kjpaw_psl.0.3.1.UPF has been successfully fixed on the fly.
To avoid this message in the future you can permanently fix
 your pseudo files following instructions given in:
               file Mn.pbe-spn-kjpaw_psl.0.3.1.UPF: wavefunction(s)  3P 3D renormalized
     Message from routine read_upf::
     Pseudo file ./pseudo/Mn.pbe-spn-kjpaw_psl.0.3.1.UPF has been successfully fixed on the fly.
To avoid this message in the future you can permanently fix
 your pseudo files following instructions given in:
               file Mn.pbe-spn-kjpaw_psl.0.3.1.UPF: wavefunction(s)  3P 3D renormalized
     Message from routine read_upf::
     Pseudo file ./pseudo/Mn.pbe-spn-kjpaw_psl.0.3.1.UPF has been successfully fixed on the fly.
To avoid this message in the future you can permanently fix
 your pseudo files following instructions given in:
               file Mn.pbe-spn-kjpaw_psl.0.3.1.UPF: wavefunction(s)  3P 3D renormalized
     Message from routine read_upf::
     Pseudo file ./pseudo/Mn.pbe-spn-kjpaw_psl.0.3.1.UPF has been successfully fixed on the fly.
To avoid this message in the future you can permanently fix
 your pseudo files following instructions given in:
               file Mn.pbe-spn-kjpaw_psl.0.3.1.UPF: wavefunction(s)  3P 3D renormalized
     Message from routine read_upf::
     Pseudo file ./pseudo/Mn.pbe-spn-kjpaw_psl.0.3.1.UPF has been successfully fixed on the fly.
To avoid this message in the future you can permanently fix
 your pseudo files following instructions given in:
               file Mn.pbe-spn-kjpaw_psl.0.3.1.UPF: wavefunction(s)  3P 3D renormalized
     Message from routine read_upf::
     Pseudo file ./pseudo/Au.pbe-dn-kjpaw_psl.0.1.UPF has been successfully fixed on the fly.
To avoid this message in the future you can permanently fix
 your pseudo files following instructions given in:
               file Au.pbe-dn-kjpaw_psl.0.1.UPF: wavefunction(s)  6S 6P 5D renormalized

     bravais-lattice index     =            0
     lattice parameter (alat)  =      19.2459  a.u.
     unit-cell volume          =    2072.0501 (a.u.)^3
     number of atoms/cell      =           18
     number of atomic types    =            7
     number of electrons       =       222.00
     number of Kohn-Sham states=          133
     kinetic-energy cutoff     =      45.0000  Ry
     charge density cutoff     =     300.0000  Ry
     convergence threshold     =      1.0E-06
     mixing beta               =       0.1000
     number of iterations used =            8  plain     mixing
     Exchange-correlation      = SLA PW PBX PBC ( 1  4  3  4 0 0)

     celldm(1)=  19.245946  celldm(2)=   0.000000  celldm(3)=   0.000000
     celldm(4)=   0.000000  celldm(5)=   0.000000  celldm(6)=   0.000000

     crystal axes: (cart. coord. in units of alat)
               a(1) = (   1.000000   0.000000   0.000000 )
               a(2) = (   0.000000   0.333333   0.000000 )
               a(3) = (   0.000000   0.000000   0.871974 )

     reciprocal axes: (cart. coord. in units 2 pi/alat)
               b(1) = (  1.000000  0.000000  0.000000 )
               b(2) = (  0.000000  3.000000  0.000000 )
               b(3) = (  0.000000  0.000000  1.146823 )

     PseudoPot. # 1 for Mn read from file:
     ./pseudo/Mn.pbe-spn-kjpaw_psl.0.3.1.UPF
     MD5 check sum: 7eef95dd2aae66803482eea66ebeebf1
     Pseudo is Projector augmented-wave + core cor, Zval = 15.0
     Generated using "atomic" code by A. Dal Corso v.5.0.99 svn rev. 10869
     Shape of augmentation charge: PSQ
     Using radial grid of 1187 points,  6 beta functions with:
                l(1) =   0
                l(2) =   0
                l(3) =   1
                l(4) =   1
                l(5) =   2
                l(6) =   2
     Q(r) pseudized with 0 coefficients

[...]

     PseudoPot. # 6 for Mn read from file:
     ./pseudo/Mn.pbe-spn-kjpaw_psl.0.3.1.UPF
     MD5 check sum: 7eef95dd2aae66803482eea66ebeebf1
     Pseudo is Projector augmented-wave + core cor, Zval = 15.0
     Generated using "atomic" code by A. Dal Corso v.5.0.99 svn rev. 10869
     Shape of augmentation charge: PSQ
     Using radial grid of 1187 points,  6 beta functions with:
                l(1) =   0
                l(2) =   0
                l(3) =   1
                l(4) =   1
                l(5) =   2
                l(6) =   2
     Q(r) pseudized with 0 coefficients

     PseudoPot. # 7 for Au read from file:
     ./pseudo/Au.pbe-dn-kjpaw_psl.0.1.UPF
     MD5 check sum: 5c9b92683623e7ae2ab3f8e525febab6
     Pseudo is Projector augmented-wave + core cor, Zval = 11.0
     Generated using "atomic" code by A. Dal Corso v.5.0.2 svn rev. 9415
     Shape of augmentation charge: PSQ
     Using radial grid of 1279 points,  6 beta functions with:
                l(1) =   0
                l(2) =   0
                l(3) =   1
                l(4) =   1
                l(5) =   2
                l(6) =   2
     Q(r) pseudized with 0 coefficients

     atomic species   valence    mass     pseudopotential
        Mn1           15.00    54.93800     Mn( 1.00)
        Mn2           15.00    54.93800     Mn( 1.00)
        Mn3           15.00    54.93800     Mn( 1.00)
        Mn4           15.00    54.93800     Mn( 1.00)
        Mn5           15.00    54.93800     Mn( 1.00)
        Mn6           15.00    54.93800     Mn( 1.00)
        Au            11.00   196.96600     Au( 1.00)

     Starting magnetic structure
     atomic species   magnetization
        Mn1          0.800
        Mn2          0.800
        Mn3          0.800
        Mn4         -0.800
        Mn5         -0.800
        Mn6         -0.800
        Au           0.000

      4 Sym. Ops. (no inversion) found

   Cartesian axes

     site n.     atom                  positions (alat units)
         1           Mn1 tau(   1) = (   0.0000000   0.0000000   0.0000000  )
         2           Mn2 tau(   2) = (   0.3333330   0.0000000   0.0000000  )
         3           Mn3 tau(   3) = (   0.6666670   0.0000000   0.0000000  )
         4           Mn4 tau(   4) = (   0.1666670   0.1666667   0.4359871  )
         5           Mn5 tau(   5) = (   0.5000000   0.1666667   0.4359871  )
         6           Mn6 tau(   6) = (   0.8333330   0.1666667   0.4359871  )
         7           Au  tau(   7) = (   0.1666670   0.1666667   0.7327366  )
         8           Au  tau(   8) = (   0.5000000   0.1666667   0.7327366  )
         9           Au  tau(   9) = (   0.8333330   0.1666667   0.7327366  )
        10           Au  tau(  10) = (   0.1666670   0.1666667   0.1392377  )
        11           Au  tau(  11) = (   0.5000000   0.1666667   0.1392377  )
        12           Au  tau(  12) = (   0.8333330   0.1666667   0.1392377  )
        13           Au  tau(  13) = (   0.0000000   0.0000000   0.2967494  )
        14           Au  tau(  14) = (   0.3333330   0.0000000   0.2967494  )
        15           Au  tau(  15) = (   0.6666670   0.0000000   0.2967494  )
        16           Au  tau(  16) = (   0.0000000   0.0000000   0.5752249  )
        17           Au  tau(  17) = (   0.3333330   0.0000000   0.5752249  )
        18           Au  tau(  18) = (   0.6666670   0.0000000   0.5752249  )

     number of k points=    64 (tetrahedron method)
                       cart. coord. in units 2pi/alat
        k(    1) = (   0.0000000   0.0000000   0.0000000), wk =   0.0046296
        k(    2) = (   0.0000000   0.0000000   0.1911371), wk =   0.0092593
        k(    3) = (   0.0000000   0.0000000   0.3822743), wk =   0.0092593
        k(    4) = (   0.0000000   0.0000000  -0.5734114), wk =   0.0046296
        k(    5) = (   0.0000000   0.5000000   0.0000000), wk =   0.0092593
        k(    6) = (   0.0000000   0.5000000   0.1911371), wk =   0.0185185
        k(    7) = (   0.0000000   0.5000000   0.3822743), wk =   0.0185185
        k(    8) = (   0.0000000   0.5000000  -0.5734114), wk =   0.0092593
        k(    9) = (   0.0000000   0.9999999   0.0000000), wk =   0.0092593
        k(   10) = (   0.0000000   0.9999999   0.1911371), wk =   0.0185185
        k(   11) = (   0.0000000   0.9999999   0.3822743), wk =   0.0185185
        k(   12) = (   0.0000000   0.9999999  -0.5734114), wk =   0.0092593
        k(   13) = (   0.0000000  -1.4999999   0.0000000), wk =   0.0046296
        k(   14) = (   0.0000000  -1.4999999   0.1911371), wk =   0.0092593
        k(   15) = (   0.0000000  -1.4999999   0.3822743), wk =   0.0092593
        k(   16) = (   0.0000000  -1.4999999  -0.5734114), wk =   0.0046296
        k(   17) = (   0.1666667   0.0000000   0.0000000), wk =   0.0092593
        k(   18) = (   0.1666667   0.0000000   0.1911371), wk =   0.0185185
        k(   19) = (   0.1666667   0.0000000   0.3822743), wk =   0.0185185
        k(   20) = (   0.1666667   0.0000000  -0.5734114), wk =   0.0092593
        k(   21) = (   0.1666667   0.5000000   0.0000000), wk =   0.0185185
        k(   22) = (   0.1666667   0.5000000   0.1911371), wk =   0.0370370
        k(   23) = (   0.1666667   0.5000000   0.3822743), wk =   0.0370370
        k(   24) = (   0.1666667   0.5000000  -0.5734114), wk =   0.0185185
        k(   25) = (   0.1666667   0.9999999   0.0000000), wk =   0.0185185
        k(   26) = (   0.1666667   0.9999999   0.1911371), wk =   0.0370370
        k(   27) = (   0.1666667   0.9999999   0.3822743), wk =   0.0370370
        k(   28) = (   0.1666667   0.9999999  -0.5734114), wk =   0.0185185
        k(   29) = (   0.1666667  -1.4999999   0.0000000), wk =   0.0092593
        k(   30) = (   0.1666667  -1.4999999   0.1911371), wk =   0.0185185
        k(   31) = (   0.1666667  -1.4999999   0.3822743), wk =   0.0185185
        k(   32) = (   0.1666667  -1.4999999  -0.5734114), wk =   0.0092593
        k(   33) = (   0.3333333   0.0000000   0.0000000), wk =   0.0092593
        k(   34) = (   0.3333333   0.0000000   0.1911371), wk =   0.0185185
        k(   35) = (   0.3333333   0.0000000   0.3822743), wk =   0.0185185
        k(   36) = (   0.3333333   0.0000000  -0.5734114), wk =   0.0092593
        k(   37) = (   0.3333333   0.5000000   0.0000000), wk =   0.0185185
        k(   38) = (   0.3333333   0.5000000   0.1911371), wk =   0.0370370
        k(   39) = (   0.3333333   0.5000000   0.3822743), wk =   0.0370370
        k(   40) = (   0.3333333   0.5000000  -0.5734114), wk =   0.0185185
        k(   41) = (   0.3333333   0.9999999   0.0000000), wk =   0.0185185
        k(   42) = (   0.3333333   0.9999999   0.1911371), wk =   0.0370370
        k(   43) = (   0.3333333   0.9999999   0.3822743), wk =   0.0370370
        k(   44) = (   0.3333333   0.9999999  -0.5734114), wk =   0.0185185
        k(   45) = (   0.3333333  -1.4999999   0.0000000), wk =   0.0092593
        k(   46) = (   0.3333333  -1.4999999   0.1911371), wk =   0.0185185
        k(   47) = (   0.3333333  -1.4999999   0.3822743), wk =   0.0185185
        k(   48) = (   0.3333333  -1.4999999  -0.5734114), wk =   0.0092593
        k(   49) = (  -0.5000000   0.0000000   0.0000000), wk =   0.0046296
        k(   50) = (  -0.5000000   0.0000000   0.1911371), wk =   0.0092593
        k(   51) = (  -0.5000000   0.0000000   0.3822743), wk =   0.0092593
        k(   52) = (  -0.5000000   0.0000000  -0.5734114), wk =   0.0046296
        k(   53) = (  -0.5000000   0.5000000   0.0000000), wk =   0.0092593
        k(   54) = (  -0.5000000   0.5000000   0.1911371), wk =   0.0185185
        k(   55) = (  -0.5000000   0.5000000   0.3822743), wk =   0.0185185
        k(   56) = (  -0.5000000   0.5000000  -0.5734114), wk =   0.0092593
        k(   57) = (  -0.5000000   0.9999999   0.0000000), wk =   0.0092593
        k(   58) = (  -0.5000000   0.9999999   0.1911371), wk =   0.0185185
        k(   59) = (  -0.5000000   0.9999999   0.3822743), wk =   0.0185185
        k(   60) = (  -0.5000000   0.9999999  -0.5734114), wk =   0.0092593
        k(   61) = (  -0.5000000  -1.4999999   0.0000000), wk =   0.0046296
        k(   62) = (  -0.5000000  -1.4999999   0.1911371), wk =   0.0092593
        k(   63) = (  -0.5000000  -1.4999999   0.3822743), wk =   0.0092593
        k(   64) = (  -0.5000000  -1.4999999  -0.5734114), wk =   0.0046296

     Check: negative/imaginary core charge=   -0.000007    0.000000

     Initial potential from superposition of free atoms

     starting charge  221.99570, renormalised to  222.00000
     Starting wfcs are  168 randomized atomic wfcs
     Checking if some PAW data can be deallocated...

     Self-consistent Calculation

     iteration #  1     ecut=    45.00 Ry     beta= 0.10
     Davidson diagonalization with overlap
     ethr =  1.00E-02,  avg # of iterations =  3.4

     total energy              =  -11015.68982599 Ry
     Harris-Foulkes estimate   =  -11014.62811817 Ry
     estimated scf accuracy    <       9.02267354 Ry

     total magnetization       =     0.00 Bohr mag/cell
     absolute magnetization    =    30.67 Bohr mag/cell

[...]

     total energy              =  -11020.87601175 Ry
     Harris-Foulkes estimate   =  -11020.87601016 Ry
     estimated scf accuracy    <       0.00000224 Ry

[...]

     iteration # 22     ecut=    45.00 Ry     beta= 0.10
     Davidson diagonalization with overlap
     ethr =  1.01E-09,  avg # of iterations =  2.0

     Magnetic moment per site:
     atom:    1    charge:   13.5778    magn:    4.0057    constr:    0.0000
     atom:    2    charge:   13.5776    magn:    4.0050    constr:    0.0000
     atom:    3    charge:   13.5775    magn:    4.0055    constr:    0.0000
     atom:    4    charge:   13.5777    magn:   -4.0057    constr:    0.0000
     atom:    5    charge:   13.5776    magn:   -4.0049    constr:    0.0000
     atom:    6    charge:   13.5776    magn:   -4.0056    constr:    0.0000
     atom:    7    charge:    9.1214    magn:    0.0520    constr:    0.0000
     atom:    8    charge:    9.1212    magn:    0.0528    constr:    0.0000
     atom:    9    charge:    9.1213    magn:    0.0524    constr:    0.0000
     atom:   10    charge:    9.1214    magn:    0.0520    constr:    0.0000
     atom:   11    charge:    9.1212    magn:    0.0528    constr:    0.0000
     atom:   12    charge:    9.1213    magn:    0.0524    constr:    0.0000
     atom:   13    charge:    9.1213    magn:   -0.0524    constr:    0.0000
     atom:   14    charge:    9.1213    magn:   -0.0528    constr:    0.0000
     atom:   15    charge:    9.1214    magn:   -0.0520    constr:    0.0000
     atom:   16    charge:    9.1213    magn:   -0.0524    constr:    0.0000
     atom:   17    charge:    9.1213    magn:   -0.0528    constr:    0.0000
     atom:   18    charge:    9.1214    magn:   -0.0520    constr:    0.0000

     End of self-consistent calculation

     Number of k-points >= 100: set verbosity='high' to print the bands.

     the Fermi energy is    14.8594 ev

!    total energy              =  -11020.87601685 Ry
     Harris-Foulkes estimate   =  -11020.87601177 Ry
     estimated scf accuracy    <       0.00000077 Ry

     total all-electron energy =   -470191.572808 Ry

     The total energy is the sum of the following terms:

     one-electron contribution =    -548.54079181 Ry
     hartree contribution      =     496.59697827 Ry
     xc contribution           =    -552.90808023 Ry
     ewald contribution        =   -1639.75247190 Ry
     one-center paw contrib.   =   -8776.27165118 Ry

     total magnetization       =    -0.00 Bohr mag/cell
     absolute magnetization    =    26.49 Bohr mag/cell

     convergence has been achieved in  22 iterations

     Writing output data file mnau2.save/

     General routines

     Parallel routines

   This run was terminated on:  17:11: 0  18Feb2019

   JOB DONE.