     Program PWSCF v.6.3 starts on 11Feb2019 at 20:53:42

     R & G space division:  proc/nbgrp/npool/nimage =      16
     Waiting for input...
     Reading input from standard input

     Current dimensions of program PWSCF are:
     Max number of different atomic species (ntypx) = 10
     Max number of k-points (npk) =  40000
     Max angular momentum in pseudopotentials (lmaxx) =  3

     bravais-lattice index     =            0
     lattice parameter (alat)  =       6.4153  a.u.
     unit-cell volume          =     690.6834 (a.u.)^3
     number of atoms/cell      =            6
     number of atomic types    =            6
     number of electrons       =        74.00
     number of Kohn-Sham states=           44
     kinetic-energy cutoff     =      30.0000  Ry
     charge density cutoff     =     300.0000  Ry
     convergence threshold     =      1.0E-06
     mixing beta               =       0.0500
     number of iterations used =            8  plain     mixing
     Exchange-correlation      =  SLA  PW   PBE  PBE ( 1  4  3  4 0 0)

     celldm(1)=   6.415316  celldm(2)=   0.000000  celldm(3)=   0.000000
     celldm(4)=   0.000000  celldm(5)=   0.000000  celldm(6)=   0.000000

     crystal axes: (cart. coord. in units of alat)
               a(1) = (   1.000000   0.000000   0.000000 )
               a(2) = (   0.000000   1.000000   0.000000 )
               a(3) = (   0.000000   0.000000   2.615923 )

     reciprocal axes: (cart. coord. in units 2 pi/alat)
               b(1) = (  1.000000  0.000000  0.000000 )
               b(2) = (  0.000000  1.000000  0.000000 )
               b(3) = (  0.000000  0.000000  0.382274 )

     PseudoPot. # 1 for Mn read from file:
     ./pseudo/Mn.pbe-sp-hgh.UPF
     MD5 check sum: 3e34829e68efb4927d63695bef9f06b2
     Pseudo is Norm-conserving, Zval = 15.0
     Generated in analytical, separable form
     Using radial grid of 1187 points,  5 beta functions with:
                l(1) =   0
                l(2) =   0
                l(3) =   1
                l(4) =   1
                l(5) =   2

     PseudoPot. # 2 for Mn read from file:
     ./pseudo/Mn.pbe-sp-hgh.UPF
     MD5 check sum: 3e34829e68efb4927d63695bef9f06b2
     Pseudo is Norm-conserving, Zval = 15.0
     Generated in analytical, separable form
     Using radial grid of 1187 points,  5 beta functions with:
                l(1) =   0
                l(2) =   0
                l(3) =   1
                l(4) =   1
                l(5) =   2

     PseudoPot. # 3 for Au read from file:
     ./pseudo/Au.pbe-nd-rrkjus.UPF
     MD5 check sum: 41a08e3cb62f65879dfe3845f8e5fcb7
     Pseudo is Ultrasoft + core correction, Zval = 11.0
     Generated by new atomic code, or converted to UPF format
     Using radial grid of 1279 points,  3 beta functions with:
                l(1) =   2
                l(2) =   2
                l(3) =   1
     Q(r) pseudized with 0 coefficients

[...]

     PseudoPot. # 6 for Au read from file:
     ./pseudo/Au.pbe-nd-rrkjus.UPF
     MD5 check sum: 41a08e3cb62f65879dfe3845f8e5fcb7
     Pseudo is Ultrasoft + core correction, Zval = 11.0
     Generated by new atomic code, or converted to UPF format
     Using radial grid of 1279 points,  3 beta functions with:
                l(1) =   2
                l(2) =   2
                l(3) =   1
     Q(r) pseudized with 0 coefficients

     atomic species   valence    mass     pseudopotential
        Mn1           15.00     1.00000     Mn( 1.00)
        Mn2           15.00     1.00000     Mn( 1.00)
        Au1           11.00     1.00000     Au( 1.00)
        Au2           11.00     1.00000     Au( 1.00)
        Au3           11.00     1.00000     Au( 1.00)
        Au4           11.00     1.00000     Au( 1.00)

     Starting magnetic structure
     atomic species   magnetization
        Mn1          0.000
        Mn2          0.000
        Au1          0.000
        Au2          0.000
        Au3          0.000
        Au4          0.000

      8 Sym. Ops. (no inversion) found

   Cartesian axes

     site n.     atom                  positions (alat units)
         1           Mn1 tau(   1) = (   0.0000000   0.0000000   0.0000000  )
         2           Au1 tau(   2) = (   0.5000000   0.5000000   2.1982094  )
         3           Au2 tau(   3) = (   0.5000000   0.5000000   0.4177131  )
         4           Mn2 tau(   4) = (   0.5000000   0.5000000   1.3079613  )
         5           Au3 tau(   5) = (   0.0000000   0.0000000   0.8902482  )
         6           Au4 tau(   6) = (   0.0000000   0.0000000   1.7256744  )

     number of k points=   405 (tetrahedron method)

     Number of k-points >= 100: set verbosity='high' to print them.

     Check: negative/imaginary core charge=   -0.000025    0.000000

     Initial potential from superposition of free atoms

     starting charge   43.99956, renormalised to   74.00000
     Starting wfcs are   36 randomized atomic wfcs +    8 random wfcs

     Self-consistent Calculation

     iteration #  1     ecut=    30.00 Ry     beta= 0.05
     Davidson diagonalization with overlap
     ethr =  1.00E-02,  avg # of iterations = 14.0

     total energy              =   -1311.99051411 Ry
     Harris-Foulkes estimate   =   -1414.54871038 Ry
     estimated scf accuracy    <    1545.35094372 Ry

     total magnetization       =     0.03 Bohr mag/cell
     absolute magnetization    =     0.03 Bohr mag/cell

[...]

     negative rho (up, down):  7.940E-04 7.859E-04

[...]

     negative rho (up, down):  2.517E-07 1.763E-07

[...]

     total energy              =    -748.61561504 Ry
     Harris-Foulkes estimate   =    -748.61561562 Ry
     estimated scf accuracy    <       0.00000115 Ry

[...]

     iteration # 57     ecut=    30.00 Ry     beta= 0.05
     Davidson diagonalization with overlap
     ethr =  1.55E-09,  avg # of iterations =  2.5

     Magnetic moment per site:
     atom:    1    charge:   12.8589    magn:    0.0037    constr:    0.0000
     atom:    2    charge:    9.0863    magn:   -0.0006    constr:    0.0000
     atom:    3    charge:    9.0863    magn:   -0.0006    constr:    0.0000
     atom:    4    charge:   12.8594    magn:   -0.0010    constr:    0.0000
     atom:    5    charge:    9.0863    magn:    0.0002    constr:    0.0000
     atom:    6    charge:    9.0862    magn:    0.0002    constr:    0.0000

     End of self-consistent calculation

     Number of k-points >= 100: set verbosity='high' to print the bands.

     the Fermi energy is    16.3728 ev

!    total energy              =    -748.61561585 Ry
     Harris-Foulkes estimate   =    -748.61561562 Ry
     estimated scf accuracy    <       0.00000043 Ry

     The total energy is the sum of the following terms:

     one-electron contribution =    -142.34246159 Ry
     hartree contribution      =     119.22508770 Ry
     xc contribution           =    -178.91410248 Ry
     ewald contribution        =    -546.58413949 Ry

     total magnetization       =     0.00 Bohr mag/cell
     absolute magnetization    =     0.04 Bohr mag/cell

     convergence has been achieved in  57 iterations

     Writing output data file mnau2.save/

     General routines

     Parallel routines

   This run was terminated on:  21:36:59  11Feb2019

   JOB DONE.