     Program PWSCF v.6.3MaX starts on  6Apr2019 at 22:40: 5

     R & G space division:  proc/nbgrp/npool/nimage =      32
     Waiting for input...
     Reading input from standard input

     Current dimensions of program PWSCF are:
     Max number of different atomic species (ntypx) = 10
     Max number of k-points (npk) =  40000
     Max angular momentum in pseudopotentials (lmaxx) =  3
               file Mn.pbe-spn-kjpaw_psl.0.3.1.UPF: wavefunction(s)  3P 3D renormalized
               file Mn.pbe-spn-kjpaw_psl.0.3.1.UPF: wavefunction(s)  3P 3D renormalized
               file Au.pbe-dn-kjpaw_psl.0.1.UPF: wavefunction(s)  6S 6P 5D renormalized

     Found symmetry operation: I + (  0.0000  0.0000 -0.5000)
     This is a supercell, fractional translations are disabled

     bravais-lattice index     =            0
     lattice parameter (alat)  =       6.4153  a.u.
     unit-cell volume          =    2724.7774 (a.u.)^3
     number of atoms/cell      =           24
     number of atomic types    =            3
     number of electrons       =       296.00
     number of Kohn-Sham states=          178
     kinetic-energy cutoff     =      45.0000  Ry
     charge density cutoff     =     400.0000  Ry
     convergence threshold     =      1.0E-06
     mixing beta               =       0.1000
     number of iterations used =            8  plain     mixing
     Exchange-correlation      = SLA PW PBX PBC ( 1  4  3  4 0 0)

     celldm(1)=   6.415315  celldm(2)=   0.000000  celldm(3)=   0.000000
     celldm(4)=   0.000000  celldm(5)=   0.000000  celldm(6)=   0.000000

     crystal axes: (cart. coord. in units of alat)
               a(1) = (   1.000000   0.000000   0.000000 )
               a(2) = (   0.000000   1.000000   0.000000 )
               a(3) = (   0.000000   0.000000  10.319937 )

     reciprocal axes: (cart. coord. in units 2 pi/alat)
               b(1) = (  1.000000  0.000000  0.000000 )
               b(2) = (  0.000000  1.000000  0.000000 )
               b(3) = (  0.000000  0.000000  0.096900 )

     PseudoPot. # 1 for Mn read from file:
     ./pseudo/Mn.pbe-spn-kjpaw_psl.0.3.1.UPF
     MD5 check sum: 7b43a3fb0e93e198b8dd8488d8cf503e
     Pseudo is Projector augmented-wave + core cor, Zval = 15.0
     Generated using "atomic" code by A. Dal Corso v.5.0.99 svn rev. 10869
     Shape of augmentation charge: PSQ
     Using radial grid of 1187 points,  6 beta functions with:
                l(1) =   0
                l(2) =   0
                l(3) =   1
                l(4) =   1
                l(5) =   2
                l(6) =   2
     Q(r) pseudized with 0 coefficients

     PseudoPot. # 2 for Mn read from file:
     ./pseudo/Mn.pbe-spn-kjpaw_psl.0.3.1.UPF
     MD5 check sum: 7b43a3fb0e93e198b8dd8488d8cf503e
     Pseudo is Projector augmented-wave + core cor, Zval = 15.0
     Generated using "atomic" code by A. Dal Corso v.5.0.99 svn rev. 10869
     Shape of augmentation charge: PSQ
     Using radial grid of 1187 points,  6 beta functions with:
                l(1) =   0
                l(2) =   0
                l(3) =   1
                l(4) =   1
                l(5) =   2
                l(6) =   2
     Q(r) pseudized with 0 coefficients

     PseudoPot. # 3 for Au read from file:
     ./pseudo/Au.pbe-dn-kjpaw_psl.0.1.UPF
     MD5 check sum: be11e2e8e535ebe2b3ccfb4f88f554cb
     Pseudo is Projector augmented-wave + core cor, Zval = 11.0
     Generated using "atomic" code by A. Dal Corso v.5.0.2 svn rev. 9415
     Shape of augmentation charge: PSQ
     Using radial grid of 1279 points,  6 beta functions with:
                l(1) =   0
                l(2) =   0
                l(3) =   1
                l(4) =   1
                l(5) =   2
                l(6) =   2
     Q(r) pseudized with 0 coefficients

     atomic species   valence    mass     pseudopotential
        Mn1           15.00    54.93800     Mn( 1.00)
        Mn2           15.00    54.93800     Mn( 1.00)
        Au            11.00   196.96600     Au( 1.00)

     Starting magnetic structure
     atomic species   magnetization
        Mn1          0.800
        Mn2         -0.800
        Au           0.000

     Full LDA+U calculation (l_max = 2) with parameters (eV):
     U(  1) =   3.1200   J(  1) =   0.7000   B(  1) =   0.0803
     U(  2) =   3.1200   J(  2) =   0.7000   B(  2) =   0.0803

      8 Sym. Ops. (no inversion) found

   Cartesian axes

     site n.     atom                  positions (alat units)
         1           Mn1 tau(   1) = (   0.0000000   0.0000000   0.0000000  )
         2           Mn1 tau(   2) = (   0.5000000   0.5000000   1.2899921  )
         3           Mn1 tau(   3) = (   0.0000000   0.0000000   2.5799843  )
         4           Mn2 tau(   4) = (   0.5000000   0.5000000   3.8699764  )
         5           Mn1 tau(   5) = (   0.0000000   0.0000000   5.1599686  )
         6           Mn1 tau(   6) = (   0.5000000   0.5000000   6.4499607  )
         7           Mn1 tau(   7) = (   0.0000000   0.0000000   7.7399528  )
         8           Mn2 tau(   8) = (   0.5000000   0.5000000   9.0299450  )
         9           Au  tau(   9) = (   0.5000000   0.5000000   0.4127975  )
        10           Au  tau(  10) = (   0.0000000   0.0000000   0.8771947  )
        11           Au  tau(  11) = (   0.0000000   0.0000000   1.7027896  )
        12           Au  tau(  12) = (   0.5000000   0.5000000   2.1671868  )
        13           Au  tau(  13) = (   0.5000000   0.5000000   2.9927818  )
        14           Au  tau(  14) = (   0.0000000   0.0000000   3.4571789  )
        15           Au  tau(  15) = (   0.0000000   0.0000000   4.2827739  )
        16           Au  tau(  16) = (   0.5000000   0.5000000   4.7471711  )
        17           Au  tau(  17) = (   0.5000000   0.5000000   5.5727660  )
        18           Au  tau(  18) = (   0.0000000   0.0000000   6.0371632  )
        19           Au  tau(  19) = (   0.0000000   0.0000000   6.8627582  )
        20           Au  tau(  20) = (   0.5000000   0.5000000   7.3271553  )
        21           Au  tau(  21) = (   0.5000000   0.5000000   8.1527503  )
        22           Au  tau(  22) = (   0.0000000   0.0000000   8.6171475  )
        23           Au  tau(  23) = (   0.0000000   0.0000000   9.4427424  )
        24           Au  tau(  24) = (   0.5000000   0.5000000   9.9071396  )

     number of k points=    30 (tetrahedron method)
                       cart. coord. in units 2pi/alat
        k(    1) = (   0.0000000   0.0000000   0.0000000), wk =   0.0078125
        k(    2) = (   0.0000000   0.0000000  -0.0484499), wk =   0.0078125
        k(    3) = (   0.0000000   0.1250000   0.0000000), wk =   0.0312500
        k(    4) = (   0.0000000   0.1250000  -0.0484499), wk =   0.0312500
        k(    5) = (   0.0000000   0.2500000   0.0000000), wk =   0.0312500
        k(    6) = (   0.0000000   0.2500000  -0.0484499), wk =   0.0312500
        k(    7) = (   0.0000000   0.3750000   0.0000000), wk =   0.0312500
        k(    8) = (   0.0000000   0.3750000  -0.0484499), wk =   0.0312500
        k(    9) = (   0.0000000  -0.5000000   0.0000000), wk =   0.0156250
        k(   10) = (   0.0000000  -0.5000000  -0.0484499), wk =   0.0156250
        k(   11) = (   0.1250000   0.1250000   0.0000000), wk =   0.0312500
        k(   12) = (   0.1250000   0.1250000  -0.0484499), wk =   0.0312500
        k(   13) = (   0.1250000   0.2500000   0.0000000), wk =   0.0625000
        k(   14) = (   0.1250000   0.2500000  -0.0484499), wk =   0.0625000
        k(   15) = (   0.1250000   0.3750000   0.0000000), wk =   0.0625000
        k(   16) = (   0.1250000   0.3750000  -0.0484499), wk =   0.0625000
        k(   17) = (   0.1250000  -0.5000000   0.0000000), wk =   0.0312500
        k(   18) = (   0.1250000  -0.5000000  -0.0484499), wk =   0.0312500
        k(   19) = (   0.2500000   0.2500000   0.0000000), wk =   0.0312500
        k(   20) = (   0.2500000   0.2500000  -0.0484499), wk =   0.0312500
        k(   21) = (   0.2500000   0.3750000   0.0000000), wk =   0.0625000
        k(   22) = (   0.2500000   0.3750000  -0.0484499), wk =   0.0625000
        k(   23) = (   0.2500000  -0.5000000   0.0000000), wk =   0.0312500
        k(   24) = (   0.2500000  -0.5000000  -0.0484499), wk =   0.0312500
        k(   25) = (   0.3750000   0.3750000   0.0000000), wk =   0.0312500
        k(   26) = (   0.3750000   0.3750000  -0.0484499), wk =   0.0312500
        k(   27) = (   0.3750000  -0.5000000   0.0000000), wk =   0.0312500
        k(   28) = (   0.3750000  -0.5000000  -0.0484499), wk =   0.0312500
        k(   29) = (  -0.5000000  -0.5000000   0.0000000), wk =   0.0078125
        k(   30) = (  -0.5000000  -0.5000000  -0.0484499), wk =   0.0078125

     Check: negative/imaginary core charge=   -0.000006    0.000000

     Initial potential from superposition of free atoms

     starting charge  295.99426, renormalised to  296.00000
     Number of +U iterations with fixed ns =  0
     Starting occupations:
 --- enter write_ns ---
 LDA+U parameters:
U(  1) =   3.1200   J(  1) =   0.7000   B(  1) =   0.0803
U(  2) =   3.1200   J(  2) =   0.7000   B(  2) =   0.0803
atom    1   Tr[ns(na)] (up, down, total) =   5.00000  0.00000  5.00000
   spin  1
    eigenvalues:
  1.000  1.000  1.000  1.000  1.000
    eigenvectors:
  1.000  0.000  0.000  0.000  0.000
  0.000  1.000  0.000  0.000  0.000
  0.000  0.000  1.000  0.000  0.000
  0.000  0.000  0.000  1.000  0.000
  0.000  0.000  0.000  0.000  1.000
    occupations:
  1.000  0.000  0.000  0.000  0.000
  0.000  1.000  0.000  0.000  0.000
  0.000  0.000  1.000  0.000  0.000
  0.000  0.000  0.000  1.000  0.000
  0.000  0.000  0.000  0.000  1.000
   spin  2
    eigenvalues:
  0.000  0.000  0.000  0.000  0.000
    eigenvectors:
  1.000  0.000  0.000  0.000  0.000
  0.000  1.000  0.000  0.000  0.000
  0.000  0.000  1.000  0.000  0.000
  0.000  0.000  0.000  1.000  0.000
  0.000  0.000  0.000  0.000  1.000
    occupations:
  0.000  0.000  0.000  0.000  0.000
  0.000  0.000  0.000  0.000  0.000
  0.000  0.000  0.000  0.000  0.000
  0.000  0.000  0.000  0.000  0.000
  0.000  0.000  0.000  0.000  0.000
atomic mag. moment =     5.000000
atom    2   Tr[ns(na)] (up, down, total) =   5.00000  0.00000  5.00000
   spin  1
    eigenvalues:
  1.000  1.000  1.000  1.000  1.000
    eigenvectors:
  1.000  0.000  0.000  0.000  0.000
  0.000  1.000  0.000  0.000  0.000
  0.000  0.000  1.000  0.000  0.000
  0.000  0.000  0.000  1.000  0.000
  0.000  0.000  0.000  0.000  1.000
    occupations:
  1.000  0.000  0.000  0.000  0.000
  0.000  1.000  0.000  0.000  0.000
  0.000  0.000  1.000  0.000  0.000
  0.000  0.000  0.000  1.000  0.000
  0.000  0.000  0.000  0.000  1.000
   spin  2
    eigenvalues:
  0.000  0.000  0.000  0.000  0.000
    eigenvectors:
  1.000  0.000  0.000  0.000  0.000
  0.000  1.000  0.000  0.000  0.000
  0.000  0.000  1.000  0.000  0.000
  0.000  0.000  0.000  1.000  0.000
  0.000  0.000  0.000  0.000  1.000
    occupations:
  0.000  0.000  0.000  0.000  0.000
  0.000  0.000  0.000  0.000  0.000
  0.000  0.000  0.000  0.000  0.000
  0.000  0.000  0.000  0.000  0.000
  0.000  0.000  0.000  0.000  0.000
[...]
  1.000  0.000  0.000  0.000  0.000
  0.000  0.000  0.000  0.000  1.000
    occupations:
  0.076 -0.000 -0.000  0.000  0.000
 -0.000  0.081 -0.000  0.000  0.000
 -0.000 -0.000  0.081  0.000  0.000
  0.000  0.000  0.000  0.054 -0.000
  0.000  0.000  0.000 -0.000  0.125
   spin  2
    eigenvalues:
  1.003  1.003  1.003  1.004  1.004
    eigenvectors:
  0.000  0.000  0.000  1.000  0.000
  0.000  0.117  0.883  0.000  0.000
  0.000  0.883  0.117  0.000  0.000
  0.000  0.000  0.000  0.000  1.000
  1.000  0.000  0.000  0.000  0.000
    occupations:
  1.004 -0.000 -0.000  0.000  0.000
 -0.000  1.003 -0.000  0.000  0.000
 -0.000 -0.000  1.003  0.000  0.000
  0.000  0.000  0.000  1.004 -0.000
  0.000  0.000  0.000 -0.000  1.003
atomic mag. moment =    -4.600989
N of occupied +U levels =   43.397389
 --- exit write_ns ---

     total energy              =  -14687.27672594 Ry
     Harris-Foulkes estimate   =  -14685.81610984 Ry
     estimated scf accuracy    <      11.55162257 Ry

     total magnetization       =    20.25 Bohr mag/cell
     absolute magnetization    =    41.56 Bohr mag/cell

     iteration #  2     ecut=    45.00 Ry     beta= 0.10
     Davidson diagonalization with overlap
     ethr =  3.90E-03,  avg # of iterations =  1.0

[...]

     iteration # 13     ecut=    45.00 Ry     beta= 0.10
     Davidson diagonalization with overlap
     c_bands:  1 eigenvalues not converged
     ethr =  6.06E-06,  avg # of iterations =  3.7

[...]

     total energy              =  -14694.00560008 Ry
     Harris-Foulkes estimate   =  -14694.00559992 Ry
     estimated scf accuracy    <       0.00000130 Ry

[...]

     iteration # 39     ecut=    45.00 Ry     beta= 0.10
     Davidson diagonalization with overlap
     ethr =  3.40E-10,  avg # of iterations =  1.4

     Magnetic moment per site:
     atom:    1    charge:   13.5459    magn:    4.2494    constr:    0.0000
     atom:    2    charge:   13.5516    magn:    4.2059    constr:    0.0000
     atom:    3    charge:   13.5460    magn:    4.2498    constr:    0.0000
     atom:    4    charge:   13.5469    magn:   -4.2391    constr:    0.0000
     atom:    5    charge:   13.5459    magn:    4.2503    constr:    0.0000
     atom:    6    charge:   13.5517    magn:    4.2062    constr:    0.0000
     atom:    7    charge:   13.5458    magn:    4.2498    constr:    0.0000
     atom:    8    charge:   13.5466    magn:   -4.2417    constr:    0.0000
     atom:    9    charge:    9.1220    magn:    0.0332    constr:    0.0000
     atom:   10    charge:    9.1225    magn:    0.0378    constr:    0.0000
     atom:   11    charge:    9.1225    magn:    0.0379    constr:    0.0000
     atom:   12    charge:    9.1222    magn:    0.0334    constr:    0.0000
     atom:   13    charge:    9.1234    magn:    0.0441    constr:    0.0000
     atom:   14    charge:    9.1247    magn:   -0.0373    constr:    0.0000
     atom:   15    charge:    9.1247    magn:   -0.0372    constr:    0.0000
     atom:   16    charge:    9.1235    magn:    0.0444    constr:    0.0000
     atom:   17    charge:    9.1222    magn:    0.0338    constr:    0.0000
     atom:   18    charge:    9.1226    magn:    0.0382    constr:    0.0000
     atom:   19    charge:    9.1225    magn:    0.0381    constr:    0.0000
     atom:   20    charge:    9.1221    magn:    0.0336    constr:    0.0000
     atom:   21    charge:    9.1236    magn:    0.0437    constr:    0.0000
     atom:   22    charge:    9.1248    magn:   -0.0380    constr:    0.0000
     atom:   23    charge:    9.1248    magn:   -0.0381    constr:    0.0000
     atom:   24    charge:    9.1235    magn:    0.0435    constr:    0.0000

     End of self-consistent calculation
 --- enter write_ns ---
 LDA+U parameters:
U(  1) =   3.1200   J(  1) =   0.7000   B(  1) =   0.0803
U(  2) =   3.1200   J(  2) =   0.7000   B(  2) =   0.0803
atom    1   Tr[ns(na)] (up, down, total) =   4.97373  0.72480  5.69853
   spin  1
    eigenvalues:
  0.985  0.994  0.994  0.998  1.002
    eigenvectors:
  0.000  0.000  0.000  1.000  0.000
  0.000  0.131  0.869  0.000  0.000
  0.000  0.869  0.131  0.000  0.000
  0.000  0.000  0.000  0.000  1.000
  1.000  0.000  0.000  0.000  0.000
    occupations:
  0.998 -0.000 -0.000  0.000  0.000
 -0.000  0.994 -0.000  0.000  0.000
 -0.000 -0.000  0.994  0.000  0.000
  0.000  0.000  0.000  1.002 -0.000
  0.000  0.000  0.000 -0.000  0.985
   spin  2
    eigenvalues:
  0.066  0.120  0.146  0.146  0.247
    eigenvectors:
  0.000  1.000  0.000  0.000  0.000
  0.000  0.000  0.145  0.855  0.000
  0.000  0.000  0.855  0.145  0.000
  1.000  0.000  0.000  0.000  0.000
  0.000  0.000  0.000  0.000  1.000
    occupations:
  0.120 -0.000 -0.000  0.000  0.000
 -0.000  0.146 -0.000  0.000  0.000
 -0.000 -0.000  0.146  0.000  0.000
  0.000  0.000  0.000  0.066 -0.000
  0.000  0.000  0.000 -0.000  0.247
atomic mag. moment =     4.248924
atom    2   Tr[ns(na)] (up, down, total) =   4.97019  0.75921  5.72940
   spin  1
    eigenvalues:
  0.985  0.994  0.994  0.996  1.002
    eigenvectors:
  0.000  0.000  0.000  1.000  0.000
  0.000  0.122  0.878  0.000  0.000
  0.000  0.878  0.122  0.000  0.000
  0.000  0.000  0.000  0.000  1.000
  1.000  0.000  0.000  0.000  0.000
    occupations:
  0.996 -0.000 -0.000  0.000  0.000
 -0.000  0.994 -0.000  0.000  0.000
 -0.000 -0.000  0.994  0.000  0.000
  0.000  0.000  0.000  1.002 -0.000
  0.000  0.000  0.000 -0.000  0.985
   spin  2
    eigenvalues:
  0.065  0.137  0.144  0.144  0.269
    eigenvectors:
  0.000  1.000  0.000  0.000  0.000
  0.000  0.000  0.122  0.878  0.000
  0.000  0.000  0.878  0.122  0.000
  1.000  0.000  0.000  0.000  0.000
  0.000  0.000  0.000  0.000  1.000
    occupations:
  0.137 -0.000 -0.000  0.000  0.000
 -0.000  0.144 -0.000  0.000  0.000
 -0.000 -0.000  0.144  0.000  0.000
  0.000  0.000  0.000  0.065 -0.000
  0.000  0.000  0.000 -0.000  0.269
atomic mag. moment =     4.210984
atom    3   Tr[ns(na)] (up, down, total) =   4.97376  0.72470  5.69846
   spin  1
    eigenvalues:
  0.985  0.994  0.994  0.998  1.002
    eigenvectors:
  0.000  0.000  0.000  1.000  0.000
  0.000  0.106  0.894  0.000  0.000
  0.000  0.894  0.106  0.000  0.000
  0.000  0.000  0.000  0.000  1.000
  1.000  0.000  0.000  0.000  0.000
    occupations:
  0.998 -0.000 -0.000  0.000  0.000
 -0.000  0.994 -0.000  0.000  0.000
 -0.000 -0.000  0.994  0.000  0.000
  0.000  0.000  0.000  1.002 -0.000
  0.000  0.000  0.000 -0.000  0.985
   spin  2
    eigenvalues:
  0.066  0.120  0.146  0.146  0.247
    eigenvectors:
  0.000  1.000  0.000  0.000  0.000
  0.000  0.000  0.129  0.871  0.000
  0.000  0.000  0.871  0.129  0.000
  1.000  0.000  0.000  0.000  0.000
  0.000  0.000  0.000  0.000  1.000
    occupations:
  0.120 -0.000 -0.000  0.000  0.000
 -0.000  0.146 -0.000  0.000  0.000
 -0.000 -0.000  0.146  0.000  0.000
  0.000  0.000  0.000  0.066 -0.000
  0.000  0.000  0.000 -0.000  0.247
atomic mag. moment =     4.249058
atom    4   Tr[ns(na)] (up, down, total) =   0.73497  4.96974  5.70471
   spin  1
    eigenvalues:
  0.065  0.135  0.141  0.141  0.253
    eigenvectors:
  0.000  1.000  0.000  0.000  0.000
  0.000  0.000  0.154  0.846  0.000
  0.000  0.000  0.846  0.154  0.000
  1.000  0.000  0.000  0.000  0.000
  0.000  0.000  0.000  0.000  1.000
    occupations:
  0.135 -0.000 -0.000  0.000  0.000
 -0.000  0.141 -0.000  0.000  0.000
 -0.000 -0.000  0.141  0.000  0.000
  0.000  0.000  0.000  0.065 -0.000
  0.000  0.000  0.000 -0.000  0.253
   spin  2
    eigenvalues:
  0.984  0.994  0.994  0.995  1.003
    eigenvectors:
  0.000  0.000  0.000  1.000  0.000
  0.000  0.122  0.878  0.000  0.000
  0.000  0.878  0.122  0.000  0.000
  0.000  0.000  0.000  0.000  1.000
  1.000  0.000  0.000  0.000  0.000
    occupations:
  0.995 -0.000 -0.000  0.000  0.000
 -0.000  0.994 -0.000  0.000  0.000
 -0.000 -0.000  0.994  0.000  0.000
  0.000  0.000  0.000  1.003 -0.000
  0.000  0.000  0.000 -0.000  0.984
atomic mag. moment =    -4.234774
atom    5   Tr[ns(na)] (up, down, total) =   4.97379  0.72439  5.69818
   spin  1
    eigenvalues:
  0.985  0.994  0.994  0.998  1.002
    eigenvectors:
  0.000  0.000  0.000  1.000  0.000
  0.000  0.127  0.873  0.000  0.000
  0.000  0.873  0.127  0.000  0.000
  0.000  0.000  0.000  0.000  1.000
  1.000  0.000  0.000  0.000  0.000
    occupations:
  0.998 -0.000 -0.000  0.000  0.000
 -0.000  0.994 -0.000  0.000  0.000
 -0.000 -0.000  0.994  0.000  0.000
  0.000  0.000  0.000  1.002 -0.000
  0.000  0.000  0.000 -0.000  0.985
   spin  2
    eigenvalues:
  0.066  0.120  0.146  0.146  0.247
    eigenvectors:
  0.000  1.000  0.000  0.000  0.000
  0.000  0.000  0.107  0.893  0.000
  0.000  0.000  0.893  0.107  0.000
  1.000  0.000  0.000  0.000  0.000
  0.000  0.000  0.000  0.000  1.000
    occupations:
  0.120 -0.000 -0.000  0.000  0.000
 -0.000  0.146 -0.000  0.000  0.000
 -0.000 -0.000  0.146  0.000  0.000
  0.000  0.000  0.000  0.066 -0.000
  0.000  0.000  0.000 -0.000  0.247
atomic mag. moment =     4.249396
atom    6   Tr[ns(na)] (up, down, total) =   4.97022  0.75916  5.72937
   spin  1
    eigenvalues:
  0.985  0.994  0.994  0.996  1.002
    eigenvectors:
  0.000  0.000  0.000  1.000  0.000
  0.000  0.130  0.870  0.000  0.000
  0.000  0.870  0.130  0.000  0.000
  0.000  0.000  0.000  0.000  1.000
  1.000  0.000  0.000  0.000  0.000
    occupations:
  0.996 -0.000 -0.000  0.000  0.000
 -0.000  0.994 -0.000  0.000  0.000
 -0.000 -0.000  0.994  0.000  0.000
  0.000  0.000  0.000  1.002 -0.000
  0.000  0.000  0.000 -0.000  0.985
   spin  2
    eigenvalues:
  0.064  0.137  0.144  0.144  0.269
    eigenvectors:
  0.000  1.000  0.000  0.000  0.000
  0.000  0.000  0.110  0.890  0.000
  0.000  0.000  0.890  0.110  0.000
  1.000  0.000  0.000  0.000  0.000
  0.000  0.000  0.000  0.000  1.000
    occupations:
  0.137 -0.000 -0.000  0.000  0.000
 -0.000  0.144 -0.000  0.000  0.000
 -0.000 -0.000  0.144  0.000  0.000
  0.000  0.000  0.000  0.064 -0.000
  0.000  0.000  0.000 -0.000  0.269
atomic mag. moment =     4.211063
atom    7   Tr[ns(na)] (up, down, total) =   4.97376  0.72452  5.69828
   spin  1
    eigenvalues:
  0.985  0.994  0.994  0.998  1.002
    eigenvectors:
  0.000  0.000  0.000  1.000  0.000
  0.000  0.128  0.872  0.000  0.000
  0.000  0.872  0.128  0.000  0.000
  0.000  0.000  0.000  0.000  1.000
  1.000  0.000  0.000  0.000  0.000
    occupations:
  0.998 -0.000 -0.000  0.000  0.000
 -0.000  0.994 -0.000  0.000  0.000
 -0.000 -0.000  0.994  0.000  0.000
  0.000  0.000  0.000  1.002 -0.000
  0.000  0.000  0.000 -0.000  0.985
   spin  2
    eigenvalues:
  0.066  0.120  0.146  0.146  0.247
    eigenvectors:
  0.000  1.000  0.000  0.000  0.000
  0.000  0.000  0.126  0.874  0.000
  0.000  0.000  0.874  0.126  0.000
  1.000  0.000  0.000  0.000  0.000
  0.000  0.000  0.000  0.000  1.000
    occupations:
  0.120 -0.000 -0.000  0.000  0.000
 -0.000  0.146 -0.000  0.000  0.000
 -0.000 -0.000  0.146  0.000  0.000
  0.000  0.000  0.000  0.066 -0.000
  0.000  0.000  0.000 -0.000  0.247
atomic mag. moment =     4.249238
atom    8   Tr[ns(na)] (up, down, total) =   0.73338  4.97000  5.70338
   spin  1
    eigenvalues:
  0.064  0.134  0.142  0.142  0.251
    eigenvectors:
  0.000  1.000  0.000  0.000  0.000
  0.000  0.000  0.129  0.871  0.000
  0.000  0.000  0.871  0.129  0.000
  1.000  0.000  0.000  0.000  0.000
  0.000  0.000  0.000  0.000  1.000
    occupations:
  0.134 -0.000 -0.000  0.000  0.000
 -0.000  0.142 -0.000  0.000  0.000
 -0.000 -0.000  0.142  0.000  0.000
  0.000  0.000  0.000  0.064 -0.000
  0.000  0.000  0.000 -0.000  0.251
   spin  2
    eigenvalues:
  0.984  0.994  0.994  0.996  1.003
    eigenvectors:
  0.000  0.000  0.000  1.000  0.000
  0.000  0.138  0.862  0.000  0.000
  0.000  0.862  0.138  0.000  0.000
  0.000  0.000  0.000  0.000  1.000
  1.000  0.000  0.000  0.000  0.000
    occupations:
  0.996 -0.000 -0.000  0.000  0.000
 -0.000  0.994 -0.000  0.000  0.000
 -0.000 -0.000  0.994  0.000  0.000
  0.000  0.000  0.000  1.003 -0.000
  0.000  0.000  0.000 -0.000  0.984
atomic mag. moment =    -4.236622
N of occupied +U levels =   45.660316
 --- exit write_ns ---

 ------ SPIN UP ------------

          k = 0.0000 0.0000 0.0000 ( 13925 PWs)   bands (ev):

   -66.7586 -66.7582 -66.7577 -66.7571 -66.6206 -66.6204 -62.2185 -62.2169
   -35.5273 -35.5268 -35.5262 -35.5256 -35.4757 -35.4757 -35.4754 -35.4754
   -35.4750 -35.4750 -35.4745 -35.4745 -35.4020 -35.4018 -35.3336 -35.3336
   -35.3333 -35.3333 -31.0435 -31.0423 -31.0354 -31.0354 -31.0336 -31.0336
     5.7407   5.8770   5.9068   6.2770   6.3909   6.9557   7.0629   7.6123
     8.2137   8.3773   8.3848   8.3953   8.4237   8.5245   8.5425   8.5542
     8.6987   8.7627   8.8368   8.8901   8.8916   8.8960   9.1256   9.2684
     9.3004   9.3754   9.3954   9.4408   9.5358   9.6485   9.6871   9.7972
     9.8982   9.9068  10.0005  10.0227  10.0958  10.1224  10.1224  10.1305
    10.1535  10.1535  10.1601  10.2009  10.2009  10.2625  10.3021  10.3118
    10.3290  10.3290  10.3488  10.3488  10.5788  10.5788  10.5794  10.5794
    10.5881  10.5881  10.5905  10.6133  10.6133  10.6293  10.6293  10.6431
    10.6431  10.6632  10.6812  10.7468  10.7468  10.7854  10.7854  10.8285
    10.9249  11.0099  11.0099  11.0241  11.0399  11.0399  11.1404  11.2194
    11.2365  11.2510  11.3334  11.4055  11.4055  11.4372  11.4397  11.4707
    11.6036  11.6036  11.6295  11.6946  11.7727  11.8642  11.8740  11.8932
    11.8932  11.9018  11.9364  11.9688  12.1569  12.1569  12.1591  12.1852
    12.1918  12.2391  12.3309  12.3309  12.5678  12.6178  12.6659  12.6659
    12.7147  12.7147  12.8152  12.8369  12.8616  13.0147  13.0745  13.0792
    13.3094  13.7898  14.2822  15.0021  15.6372  16.3381  16.9052  16.9052
    16.9089  16.9089  16.9419  16.9435  17.0977  17.1001  17.5250  17.5591
    18.1923  19.3306  19.6334  20.0357  20.0357  20.3763  20.3763  20.4366
    20.4366  21.3322

[...]

          k =-0.5000-0.5000 0.0000 ( 13964 PWs)   bands (ev):

[...]

 ------ SPIN DOWN ----------

[...]

          k = 0.3750-0.5000-0.0484 ( 13940 PWs)   bands (ev):

[...]

          k =-0.5000-0.5000-0.0484 ( 13992 PWs)   bands (ev):

   -66.8080 -66.8042 -62.1520 -62.1518 -62.1514 -62.1511 -62.0543 -62.0539
   -35.5737 -35.5710 -35.5372 -35.5372 -35.5330 -35.5330 -30.9873 -30.9873
   -30.9871 -30.9871 -30.9868 -30.9868 -30.9865 -30.9865 -30.9728 -30.9725
   -30.9722 -30.9718 -30.8864 -30.8861 -30.8856 -30.8856 -30.8852 -30.8852
     8.2020   8.2032   8.2446   8.2450   8.6680   8.6682   8.6705   8.6707
     9.0189   9.0190   9.0693   9.0695   9.2664   9.2664   9.2666   9.2666
     9.3592   9.3594   9.3800   9.3804   9.3846   9.3846   9.3848   9.3848
     9.5745   9.5745   9.5746   9.5746   9.8768   9.8768   9.8771   9.8771
     9.9360   9.9360   9.9372   9.9372   9.9464   9.9480  10.2887  10.2887
    10.2889  10.2889  10.5511  10.5513  10.6742  10.6745  10.6844  10.6845
    10.7982  10.7982  10.7984  10.7984  11.1649  11.1659  11.2889  11.2919
    11.3562  11.3562  11.3564  11.3564  11.4016  11.4055  11.9277  11.9277
    11.9757  11.9764  11.9769  11.9776  11.9787  11.9787  11.9788  11.9788
    12.0177  12.0177  12.0390  12.0391  12.0831  12.0833  12.0835  12.0837
    12.1312  12.1313  12.1556  12.1559  12.2181  12.2186  12.2752  12.2753
    12.3274  12.3276  13.3978  13.3980  13.4180  13.4182  13.4398  13.4401
    13.9653  13.9653  13.9656  13.9656  14.3807  14.3807  14.3810  14.3810
    14.7472  14.7472  14.7475  14.7475  15.9191  15.9191  15.9192  15.9192
    16.6211  16.6222  16.8150  16.8152  16.9014  16.9018  17.1276  17.1282
    17.2563  17.2563  17.2565  17.2565  17.7970  17.7972  17.9058  17.9058
    17.9059  17.9059  17.9253  17.9255  18.0961  18.0962  18.0963  18.0964
    18.1971  18.1974  18.2151  18.2158  18.5326  18.5328  18.7750  18.7751
    18.9035  18.9035

     the Fermi energy is    15.2818 ev

!    total energy              =  -14694.00560107 Ry
     Harris-Foulkes estimate   =  -14694.00559979 Ry
     estimated scf accuracy    <       0.00000045 Ry

     total all-electron energy =   -626921.601323 Ry

     The total energy is the sum of the following terms:

     one-electron contribution =    -714.47773073 Ry
     hartree contribution      =     656.53731498 Ry
     xc contribution           =    -737.88200104 Ry
     ewald contribution        =   -2196.78933708 Ry
     Hubbard energy            =       0.44925704 Ry
     one-center paw contrib.   =  -11701.84310423 Ry

     total magnetization       =    17.51 Bohr mag/cell
     absolute magnetization    =    37.26 Bohr mag/cell

     convergence has been achieved in  39 iterations

     Writing output data file mnau2.save/

     General routines

     Parallel routines

     Hubbard U routines

   This run was terminated on:  23:20:43   6Apr2019

   JOB DONE.