     Program PWSCF v.6.3MaX starts on  6Apr2019 at 23:20:46

     R & G space division:  proc/nbgrp/npool/nimage =      32
     Waiting for input...
     Reading input from standard input

     Current dimensions of program PWSCF are:
     Max number of different atomic species (ntypx) = 10
     Max number of k-points (npk) =  40000
     Max angular momentum in pseudopotentials (lmaxx) =  3
               file Mn.pbe-spn-kjpaw_psl.0.3.1.UPF: wavefunction(s)  3P 3D renormalized
               file Mn.pbe-spn-kjpaw_psl.0.3.1.UPF: wavefunction(s)  3P 3D renormalized
               file Au.pbe-dn-kjpaw_psl.0.1.UPF: wavefunction(s)  6S 6P 5D renormalized

     bravais-lattice index     =            0
     lattice parameter (alat)  =       6.4153  a.u.
     unit-cell volume          =    2724.7774 (a.u.)^3
     number of atoms/cell      =           24
     number of atomic types    =            3
     number of electrons       =       296.00
     number of Kohn-Sham states=          178
     kinetic-energy cutoff     =      45.0000  Ry
     charge density cutoff     =     400.0000  Ry
     convergence threshold     =      1.0E-06
     mixing beta               =       0.1000
     number of iterations used =            8  plain     mixing
     Exchange-correlation      = SLA PW PBX PBC ( 1  4  3  4 0 0)

     celldm(1)=   6.415315  celldm(2)=   0.000000  celldm(3)=   0.000000
     celldm(4)=   0.000000  celldm(5)=   0.000000  celldm(6)=   0.000000

     crystal axes: (cart. coord. in units of alat)
               a(1) = (   1.000000   0.000000   0.000000 )
               a(2) = (   0.000000   1.000000   0.000000 )
               a(3) = (   0.000000   0.000000  10.319937 )

     reciprocal axes: (cart. coord. in units 2 pi/alat)
               b(1) = (  1.000000  0.000000  0.000000 )
               b(2) = (  0.000000  1.000000  0.000000 )
               b(3) = (  0.000000  0.000000  0.096900 )

     PseudoPot. # 1 for Mn read from file:
     ./pseudo/Mn.pbe-spn-kjpaw_psl.0.3.1.UPF
     MD5 check sum: 7b43a3fb0e93e198b8dd8488d8cf503e
     Pseudo is Projector augmented-wave + core cor, Zval = 15.0
     Generated using "atomic" code by A. Dal Corso v.5.0.99 svn rev. 10869
     Shape of augmentation charge: PSQ
     Using radial grid of 1187 points,  6 beta functions with:
                l(1) =   0
                l(2) =   0
                l(3) =   1
                l(4) =   1
                l(5) =   2
                l(6) =   2
     Q(r) pseudized with 0 coefficients

     PseudoPot. # 2 for Mn read from file:
     ./pseudo/Mn.pbe-spn-kjpaw_psl.0.3.1.UPF
     MD5 check sum: 7b43a3fb0e93e198b8dd8488d8cf503e
     Pseudo is Projector augmented-wave + core cor, Zval = 15.0
     Generated using "atomic" code by A. Dal Corso v.5.0.99 svn rev. 10869
     Shape of augmentation charge: PSQ
     Using radial grid of 1187 points,  6 beta functions with:
                l(1) =   0
                l(2) =   0
                l(3) =   1
                l(4) =   1
                l(5) =   2
                l(6) =   2
     Q(r) pseudized with 0 coefficients

     PseudoPot. # 3 for Au read from file:
     ./pseudo/Au.pbe-dn-kjpaw_psl.0.1.UPF
     MD5 check sum: be11e2e8e535ebe2b3ccfb4f88f554cb
     Pseudo is Projector augmented-wave + core cor, Zval = 11.0
     Generated using "atomic" code by A. Dal Corso v.5.0.2 svn rev. 9415
     Shape of augmentation charge: PSQ
     Using radial grid of 1279 points,  6 beta functions with:
                l(1) =   0
                l(2) =   0
                l(3) =   1
                l(4) =   1
                l(5) =   2
                l(6) =   2
     Q(r) pseudized with 0 coefficients

     atomic species   valence    mass     pseudopotential
        Mn1           15.00    54.93800     Mn( 1.00)
        Mn2           15.00    54.93800     Mn( 1.00)
        Au            11.00   196.96600     Au( 1.00)

     Starting magnetic structure
     atomic species   magnetization
        Mn1          0.800
        Mn2         -0.800
        Au           0.000

     Full LDA+U calculation (l_max = 2) with parameters (eV):
     U(  1) =   3.1200   J(  1) =   0.7000   B(  1) =   0.0803
     U(  2) =   3.1200   J(  2) =   0.7000   B(  2) =   0.0803

      8 Sym. Ops. (no inversion) found

   Cartesian axes

     site n.     atom                  positions (alat units)
         1           Mn1 tau(   1) = (   0.0000000   0.0000000   0.0000000  )
         2           Mn1 tau(   2) = (   0.5000000   0.5000000   1.2899921  )
         3           Mn1 tau(   3) = (   0.0000000   0.0000000   2.5799843  )
         4           Mn2 tau(   4) = (   0.5000000   0.5000000   3.8699764  )
         5           Mn1 tau(   5) = (   0.0000000   0.0000000   5.1599686  )
         6           Mn1 tau(   6) = (   0.5000000   0.5000000   6.4499607  )
         7           Mn2 tau(   7) = (   0.0000000   0.0000000   7.7399528  )
         8           Mn2 tau(   8) = (   0.5000000   0.5000000   9.0299450  )
         9           Au  tau(   9) = (   0.5000000   0.5000000   0.4127975  )
        10           Au  tau(  10) = (   0.0000000   0.0000000   0.8771947  )
        11           Au  tau(  11) = (   0.0000000   0.0000000   1.7027896  )
        12           Au  tau(  12) = (   0.5000000   0.5000000   2.1671868  )
        13           Au  tau(  13) = (   0.5000000   0.5000000   2.9927818  )
        14           Au  tau(  14) = (   0.0000000   0.0000000   3.4571789  )
        15           Au  tau(  15) = (   0.0000000   0.0000000   4.2827739  )
        16           Au  tau(  16) = (   0.5000000   0.5000000   4.7471711  )
        17           Au  tau(  17) = (   0.5000000   0.5000000   5.5727660  )
        18           Au  tau(  18) = (   0.0000000   0.0000000   6.0371632  )
        19           Au  tau(  19) = (   0.0000000   0.0000000   6.8627582  )
        20           Au  tau(  20) = (   0.5000000   0.5000000   7.3271553  )
        21           Au  tau(  21) = (   0.5000000   0.5000000   8.1527503  )
        22           Au  tau(  22) = (   0.0000000   0.0000000   8.6171475  )
        23           Au  tau(  23) = (   0.0000000   0.0000000   9.4427424  )
        24           Au  tau(  24) = (   0.5000000   0.5000000   9.9071396  )

     number of k points=    30 (tetrahedron method)
                       cart. coord. in units 2pi/alat
        k(    1) = (   0.0000000   0.0000000   0.0000000), wk =   0.0078125
        k(    2) = (   0.0000000   0.0000000  -0.0484499), wk =   0.0078125
        k(    3) = (   0.0000000   0.1250000   0.0000000), wk =   0.0312500
        k(    4) = (   0.0000000   0.1250000  -0.0484499), wk =   0.0312500
        k(    5) = (   0.0000000   0.2500000   0.0000000), wk =   0.0312500
        k(    6) = (   0.0000000   0.2500000  -0.0484499), wk =   0.0312500
        k(    7) = (   0.0000000   0.3750000   0.0000000), wk =   0.0312500
        k(    8) = (   0.0000000   0.3750000  -0.0484499), wk =   0.0312500
        k(    9) = (   0.0000000  -0.5000000   0.0000000), wk =   0.0156250
        k(   10) = (   0.0000000  -0.5000000  -0.0484499), wk =   0.0156250
        k(   11) = (   0.1250000   0.1250000   0.0000000), wk =   0.0312500
        k(   12) = (   0.1250000   0.1250000  -0.0484499), wk =   0.0312500
        k(   13) = (   0.1250000   0.2500000   0.0000000), wk =   0.0625000
        k(   14) = (   0.1250000   0.2500000  -0.0484499), wk =   0.0625000
        k(   15) = (   0.1250000   0.3750000   0.0000000), wk =   0.0625000
        k(   16) = (   0.1250000   0.3750000  -0.0484499), wk =   0.0625000
        k(   17) = (   0.1250000  -0.5000000   0.0000000), wk =   0.0312500
        k(   18) = (   0.1250000  -0.5000000  -0.0484499), wk =   0.0312500
        k(   19) = (   0.2500000   0.2500000   0.0000000), wk =   0.0312500
        k(   20) = (   0.2500000   0.2500000  -0.0484499), wk =   0.0312500
        k(   21) = (   0.2500000   0.3750000   0.0000000), wk =   0.0625000
        k(   22) = (   0.2500000   0.3750000  -0.0484499), wk =   0.0625000
        k(   23) = (   0.2500000  -0.5000000   0.0000000), wk =   0.0312500
        k(   24) = (   0.2500000  -0.5000000  -0.0484499), wk =   0.0312500
        k(   25) = (   0.3750000   0.3750000   0.0000000), wk =   0.0312500
        k(   26) = (   0.3750000   0.3750000  -0.0484499), wk =   0.0312500
        k(   27) = (   0.3750000  -0.5000000   0.0000000), wk =   0.0312500
        k(   28) = (   0.3750000  -0.5000000  -0.0484499), wk =   0.0312500
        k(   29) = (  -0.5000000  -0.5000000   0.0000000), wk =   0.0078125
        k(   30) = (  -0.5000000  -0.5000000  -0.0484499), wk =   0.0078125

     Check: negative/imaginary core charge=   -0.000006    0.000000

     Initial potential from superposition of free atoms

     starting charge  295.99426, renormalised to  296.00000
     Number of +U iterations with fixed ns =  0
     Starting occupations:
 --- enter write_ns ---
 LDA+U parameters:
U(  1) =   3.1200   J(  1) =   0.7000   B(  1) =   0.0803
U(  2) =   3.1200   J(  2) =   0.7000   B(  2) =   0.0803
atom    1   Tr[ns(na)] (up, down, total) =   5.00000  0.00000  5.00000
   spin  1
    eigenvalues:
  1.000  1.000  1.000  1.000  1.000
    eigenvectors:
  1.000  0.000  0.000  0.000  0.000
  0.000  1.000  0.000  0.000  0.000
  0.000  0.000  1.000  0.000  0.000
  0.000  0.000  0.000  1.000  0.000
  0.000  0.000  0.000  0.000  1.000
    occupations:
  1.000  0.000  0.000  0.000  0.000
  0.000  1.000  0.000  0.000  0.000
  0.000  0.000  1.000  0.000  0.000
  0.000  0.000  0.000  1.000  0.000
  0.000  0.000  0.000  0.000  1.000
   spin  2
    eigenvalues:
  0.000  0.000  0.000  0.000  0.000
    eigenvectors:
  1.000  0.000  0.000  0.000  0.000
  0.000  1.000  0.000  0.000  0.000
  0.000  0.000  1.000  0.000  0.000
  0.000  0.000  0.000  1.000  0.000
  0.000  0.000  0.000  0.000  1.000
    occupations:
  0.000  0.000  0.000  0.000  0.000
  0.000  0.000  0.000  0.000  0.000
  0.000  0.000  0.000  0.000  0.000
  0.000  0.000  0.000  0.000  0.000
  0.000  0.000  0.000  0.000  0.000
atomic mag. moment =     5.000000
atom    2   Tr[ns(na)] (up, down, total) =   5.00000  0.00000  5.00000
   spin  1
    eigenvalues:
  1.000  1.000  1.000  1.000  1.000
    eigenvectors:
  1.000  0.000  0.000  0.000  0.000
  0.000  1.000  0.000  0.000  0.000
  0.000  0.000  1.000  0.000  0.000
  0.000  0.000  0.000  1.000  0.000
  0.000  0.000  0.000  0.000  1.000
    occupations:
  1.000  0.000  0.000  0.000  0.000
  0.000  1.000  0.000  0.000  0.000
  0.000  0.000  1.000  0.000  0.000
  0.000  0.000  0.000  1.000  0.000
  0.000  0.000  0.000  0.000  1.000
   spin  2
    eigenvalues:
  0.000  0.000  0.000  0.000  0.000
    eigenvectors:
  1.000  0.000  0.000  0.000  0.000
  0.000  1.000  0.000  0.000  0.000
  0.000  0.000  1.000  0.000  0.000
  0.000  0.000  0.000  1.000  0.000
  0.000  0.000  0.000  0.000  1.000
    occupations:
  0.000  0.000  0.000  0.000  0.000
  0.000  0.000  0.000  0.000  0.000
  0.000  0.000  0.000  0.000  0.000
  0.000  0.000  0.000  0.000  0.000
  0.000  0.000  0.000  0.000  0.000
atomic mag. moment =     5.000000
atom    3   Tr[ns(na)] (up, down, total) =   5.00000  0.00000  5.00000
   spin  1
    eigenvalues:
[...]
   spin  1
    eigenvalues:
  0.053  0.075  0.082  0.082  0.120
    eigenvectors:
  0.000  1.000  0.000  0.000  0.000
  0.000  0.000  0.138  0.862  0.000
  0.000  0.000  0.862  0.138  0.000
  1.000  0.000  0.000  0.000  0.000
  0.000  0.000  0.000  0.000  1.000
    occupations:
  0.075 -0.000 -0.000  0.000  0.000
 -0.000  0.082 -0.000  0.000  0.000
 -0.000 -0.000  0.082  0.000  0.000
  0.000  0.000  0.000  0.053 -0.000
  0.000  0.000  0.000 -0.000  0.120
   spin  2
    eigenvalues:
  1.003  1.003  1.003  1.004  1.004
    eigenvectors:
  0.000  0.000  0.000  1.000  0.000
  0.000  0.088  0.912  0.000  0.000
  0.000  0.912  0.088  0.000  0.000
  0.000  0.000  0.000  0.000  1.000
  1.000  0.000  0.000  0.000  0.000
    occupations:
  1.004 -0.000 -0.000  0.000  0.000
 -0.000  1.003 -0.000  0.000  0.000
 -0.000 -0.000  1.003  0.000  0.000
  0.000  0.000  0.000  1.004 -0.000
  0.000  0.000  0.000 -0.000  1.003
atomic mag. moment =    -4.604429
N of occupied +U levels =   43.419640
 --- exit write_ns ---

     total energy              =  -14687.27646526 Ry
     Harris-Foulkes estimate   =  -14685.81626431 Ry
     estimated scf accuracy    <      11.56753025 Ry

     total magnetization       =    10.10 Bohr mag/cell
     absolute magnetization    =    41.52 Bohr mag/cell

     iteration #  2     ecut=    45.00 Ry     beta= 0.10
     Davidson diagonalization with overlap
     ethr =  3.91E-03,  avg # of iterations =  1.0

[...]

     total energy              =  -14694.00717838 Ry
     Harris-Foulkes estimate   =  -14694.00717755 Ry
     estimated scf accuracy    <       0.00000185 Ry

[...]

     iteration # 30     ecut=    45.00 Ry     beta= 0.10
     Davidson diagonalization with overlap
     ethr =  6.25E-10,  avg # of iterations =  2.0

     Magnetic moment per site:
     atom:    1    charge:   13.5497    magn:    4.2268    constr:    0.0000
     atom:    2    charge:   13.5520    magn:    4.2034    constr:    0.0000
     atom:    3    charge:   13.5456    magn:    4.2526    constr:    0.0000
     atom:    4    charge:   13.5470    magn:   -4.2342    constr:    0.0000
     atom:    5    charge:   13.5453    magn:    4.2510    constr:    0.0000
     atom:    6    charge:   13.5489    magn:    4.2295    constr:    0.0000
     atom:    7    charge:   13.5488    magn:   -4.2330    constr:    0.0000
     atom:    8    charge:   13.5484    magn:   -4.2348    constr:    0.0000
     atom:    9    charge:    9.1212    magn:    0.0314    constr:    0.0000
     atom:   10    charge:    9.1220    magn:    0.0360    constr:    0.0000
     atom:   11    charge:    9.1223    magn:    0.0382    constr:    0.0000
     atom:   12    charge:    9.1220    magn:    0.0330    constr:    0.0000
     atom:   13    charge:    9.1231    magn:    0.0448    constr:    0.0000
     atom:   14    charge:    9.1246    magn:   -0.0371    constr:    0.0000
     atom:   15    charge:    9.1235    magn:   -0.0377    constr:    0.0000
     atom:   16    charge:    9.1232    magn:    0.0513    constr:    0.0000
     atom:   17    charge:    9.1232    magn:    0.0392    constr:    0.0000
     atom:   18    charge:    9.1230    magn:    0.0394    constr:    0.0000
     atom:   19    charge:    9.1225    magn:    0.0432    constr:    0.0000
     atom:   20    charge:    9.1224    magn:   -0.0441    constr:    0.0000
     atom:   21    charge:    9.1230    magn:   -0.0388    constr:    0.0000
     atom:   22    charge:    9.1234    magn:   -0.0398    constr:    0.0000
     atom:   23    charge:    9.1239    magn:   -0.0448    constr:    0.0000
     atom:   24    charge:    9.1222    magn:    0.0370    constr:    0.0000

     End of self-consistent calculation
 --- enter write_ns ---
 LDA+U parameters:
U(  1) =   3.1200   J(  1) =   0.7000   B(  1) =   0.0803
U(  2) =   3.1200   J(  2) =   0.7000   B(  2) =   0.0803
atom    1   Tr[ns(na)] (up, down, total) =   4.97069  0.74440  5.71509
   spin  1
    eigenvalues:
  0.984  0.993  0.993  0.997  1.002
    eigenvectors:
  0.000  0.000  0.000  1.000  0.000
  0.000  0.098  0.902  0.000  0.000
  0.000  0.902  0.098  0.000  0.000
  0.000  0.000  0.000  0.000  1.000
  1.000  0.000  0.000  0.000  0.000
    occupations:
  0.997 -0.000 -0.000  0.000  0.000
 -0.000  0.993 -0.000  0.000  0.000
 -0.000 -0.000  0.993  0.000  0.000
  0.000  0.000  0.000  1.002 -0.000
  0.000  0.000  0.000 -0.000  0.984
   spin  2
    eigenvalues:
  0.065  0.132  0.145  0.145  0.256
    eigenvectors:
  0.000  1.000  0.000  0.000  0.000
  0.000  0.000  0.119  0.881  0.000
  0.000  0.000  0.881  0.119  0.000
  1.000  0.000  0.000  0.000  0.000
  0.000  0.000  0.000  0.000  1.000
    occupations:
  0.132 -0.000 -0.000  0.000  0.000
 -0.000  0.145 -0.000  0.000  0.000
 -0.000 -0.000  0.145  0.000  0.000
  0.000  0.000  0.000  0.065 -0.000
  0.000  0.000  0.000 -0.000  0.256
atomic mag. moment =     4.226289
atom    2   Tr[ns(na)] (up, down, total) =   4.96973  0.76169  5.73142
   spin  1
    eigenvalues:
  0.984  0.993  0.993  0.996  1.002
    eigenvectors:
  0.000  0.000  0.000  1.000  0.000
  0.000  0.104  0.896  0.000  0.000
  0.000  0.896  0.104  0.000  0.000
  0.000  0.000  0.000  0.000  1.000
  1.000  0.000  0.000  0.000  0.000
    occupations:
  0.996 -0.000 -0.000  0.000  0.000
 -0.000  0.993 -0.000  0.000  0.000
 -0.000 -0.000  0.993  0.000  0.000
  0.000  0.000  0.000  1.002 -0.000
  0.000  0.000  0.000 -0.000  0.984
   spin  2
    eigenvalues:
  0.065  0.141  0.143  0.143  0.270
    eigenvectors:
  0.000  1.000  0.000  0.000  0.000
  0.000  0.000  0.164  0.836  0.000
  0.000  0.000  0.836  0.164  0.000
  1.000  0.000  0.000  0.000  0.000
  0.000  0.000  0.000  0.000  1.000
    occupations:
  0.141 -0.000 -0.000  0.000  0.000
 -0.000  0.143 -0.000  0.000  0.000
 -0.000 -0.000  0.143  0.000  0.000
  0.000  0.000  0.000  0.065 -0.000
  0.000  0.000  0.000 -0.000  0.270
atomic mag. moment =     4.208049
atom    3   Tr[ns(na)] (up, down, total) =   4.97375  0.72291  5.69665
   spin  1
    eigenvalues:
  0.985  0.994  0.994  0.998  1.002
    eigenvectors:
  0.000  0.000  0.000  1.000  0.000
  0.000  0.125  0.875  0.000  0.000
  0.000  0.875  0.125  0.000  0.000
  0.000  0.000  0.000  0.000  1.000
  1.000  0.000  0.000  0.000  0.000
    occupations:
  0.998 -0.000 -0.000  0.000  0.000
 -0.000  0.994 -0.000  0.000  0.000
 -0.000 -0.000  0.994  0.000  0.000
  0.000  0.000  0.000  1.002 -0.000
  0.000  0.000  0.000 -0.000  0.985
   spin  2
    eigenvalues:
  0.066  0.117  0.147  0.147  0.246
    eigenvectors:
  0.000  1.000  0.000  0.000  0.000
  0.000  0.000  0.123  0.877  0.000
  0.000  0.000  0.877  0.123  0.000
  1.000  0.000  0.000  0.000  0.000
  0.000  0.000  0.000  0.000  1.000
    occupations:
  0.117 -0.000 -0.000  0.000  0.000
 -0.000  0.147 -0.000  0.000  0.000
 -0.000 -0.000  0.147  0.000  0.000
  0.000  0.000  0.000  0.066 -0.000
  0.000  0.000  0.000 -0.000  0.246
atomic mag. moment =     4.250840
atom    4   Tr[ns(na)] (up, down, total) =   0.73804  4.96916  5.70720
   spin  1
    eigenvalues:
  0.065  0.131  0.145  0.145  0.251
    eigenvectors:
  0.000  1.000  0.000  0.000  0.000
  0.000  0.000  0.151  0.849  0.000
  0.000  0.000  0.849  0.151  0.000
  1.000  0.000  0.000  0.000  0.000
  0.000  0.000  0.000  0.000  1.000
    occupations:
  0.131 -0.000 -0.000  0.000  0.000
 -0.000  0.145 -0.000  0.000  0.000
 -0.000 -0.000  0.145  0.000  0.000
  0.000  0.000  0.000  0.065 -0.000
  0.000  0.000  0.000 -0.000  0.251
   spin  2
    eigenvalues:
  0.984  0.994  0.994  0.995  1.003
    eigenvectors:
  0.000  0.000  0.000  1.000  0.000
  0.000  0.085  0.915  0.000  0.000
  0.000  0.915  0.085  0.000  0.000
  0.000  0.000  0.000  0.000  1.000
  1.000  0.000  0.000  0.000  0.000
    occupations:
  0.995 -0.000 -0.000  0.000  0.000
 -0.000  0.994 -0.000  0.000  0.000
 -0.000 -0.000  0.994  0.000  0.000
  0.000  0.000  0.000  1.003 -0.000
  0.000  0.000  0.000 -0.000  0.984
atomic mag. moment =    -4.231121
atom    5   Tr[ns(na)] (up, down, total) =   4.97383  0.72439  5.69822
   spin  1
    eigenvalues:
  0.985  0.994  0.994  0.997  1.003
    eigenvectors:
  0.000  0.000  0.000  1.000  0.000
  0.000  0.116  0.884  0.000  0.000
  0.000  0.884  0.116  0.000  0.000
  0.000  0.000  0.000  0.000  1.000
  1.000  0.000  0.000  0.000  0.000
    occupations:
  0.997 -0.000 -0.000  0.000  0.000
 -0.000  0.994 -0.000  0.000  0.000
 -0.000 -0.000  0.994  0.000  0.000
  0.000  0.000  0.000  1.003 -0.000
  0.000  0.000  0.000 -0.000  0.985
   spin  2
    eigenvalues:
  0.066  0.120  0.146  0.146  0.247
    eigenvectors:
  0.000  1.000  0.000  0.000  0.000
  0.000  0.000  0.142  0.858  0.000
  0.000  0.000  0.858  0.142  0.000
  1.000  0.000  0.000  0.000  0.000
  0.000  0.000  0.000  0.000  1.000
    occupations:
  0.120 -0.000 -0.000  0.000  0.000
 -0.000  0.146 -0.000  0.000  0.000
 -0.000 -0.000  0.146  0.000  0.000
  0.000  0.000  0.000  0.066 -0.000
  0.000  0.000  0.000 -0.000  0.247
atomic mag. moment =     4.249439
atom    6   Tr[ns(na)] (up, down, total) =   4.97109  0.74281  5.71390
   spin  1
    eigenvalues:
  0.984  0.994  0.994  0.996  1.002
    eigenvectors:
  0.000  0.000  0.000  1.000  0.000
  0.000  0.130  0.870  0.000  0.000
  0.000  0.870  0.130  0.000  0.000
  0.000  0.000  0.000  0.000  1.000
  1.000  0.000  0.000  0.000  0.000
    occupations:
  0.996 -0.000 -0.000  0.000  0.000
 -0.000  0.994 -0.000  0.000  0.000
 -0.000 -0.000  0.994  0.000  0.000
  0.000  0.000  0.000  1.002 -0.000
  0.000  0.000  0.000 -0.000  0.984
   spin  2
    eigenvalues:
  0.064  0.131  0.146  0.146  0.256
    eigenvectors:
  0.000  1.000  0.000  0.000  0.000
  0.000  0.000  0.121  0.879  0.000
  0.000  0.000  0.879  0.121  0.000
  1.000  0.000  0.000  0.000  0.000
  0.000  0.000  0.000  0.000  1.000
    occupations:
  0.131 -0.000 -0.000  0.000  0.000
 -0.000  0.146 -0.000  0.000  0.000
 -0.000 -0.000  0.146  0.000  0.000
  0.000  0.000  0.000  0.064 -0.000
  0.000  0.000  0.000 -0.000  0.256
atomic mag. moment =     4.228285
atom    7   Tr[ns(na)] (up, down, total) =   0.74124  4.97163  5.71287
   spin  1
    eigenvalues:
  0.064  0.133  0.144  0.144  0.256
    eigenvectors:
  0.000  1.000  0.000  0.000  0.000
  0.000  0.000  0.121  0.879  0.000
  0.000  0.000  0.879  0.121  0.000
  1.000  0.000  0.000  0.000  0.000
  0.000  0.000  0.000  0.000  1.000
    occupations:
  0.133 -0.000 -0.000  0.000  0.000
 -0.000  0.144 -0.000  0.000  0.000
 -0.000 -0.000  0.144  0.000  0.000
  0.000  0.000  0.000  0.064 -0.000
  0.000  0.000  0.000 -0.000  0.256
   spin  2
    eigenvalues:
  0.985  0.994  0.994  0.997  1.002
    eigenvectors:
  0.000  0.000  0.000  1.000  0.000
  0.000  0.154  0.846  0.000  0.000
  0.000  0.846  0.154  0.000  0.000
  0.000  0.000  0.000  0.000  1.000
  1.000  0.000  0.000  0.000  0.000
    occupations:
  0.997 -0.000 -0.000  0.000  0.000
 -0.000  0.994 -0.000  0.000  0.000
 -0.000 -0.000  0.994  0.000  0.000
  0.000  0.000  0.000  1.002 -0.000
  0.000  0.000  0.000 -0.000  0.985
atomic mag. moment =    -4.230392
atom    8   Tr[ns(na)] (up, down, total) =   0.73960  4.97180  5.71139
   spin  1
    eigenvalues:
  0.064  0.139  0.141  0.141  0.255
    eigenvectors:
  0.000  1.000  0.000  0.000  0.000
  0.000  0.000  0.168  0.832  0.000
  0.000  0.000  0.832  0.168  0.000
  1.000  0.000  0.000  0.000  0.000
  0.000  0.000  0.000  0.000  1.000
    occupations:
  0.139 -0.000 -0.000  0.000  0.000
 -0.000  0.141 -0.000  0.000  0.000
 -0.000 -0.000  0.141  0.000  0.000
  0.000  0.000  0.000  0.064 -0.000
  0.000  0.000  0.000 -0.000  0.255
   spin  2
    eigenvalues:
  0.985  0.994  0.994  0.996  1.002
    eigenvectors:
  0.000  0.000  0.000  1.000  0.000
  0.000  0.119  0.881  0.000  0.000
  0.000  0.881  0.119  0.000  0.000
  0.000  0.000  0.000  0.000  1.000
  1.000  0.000  0.000  0.000  0.000
    occupations:
  0.996 -0.000 -0.000  0.000  0.000
 -0.000  0.994 -0.000  0.000  0.000
 -0.000 -0.000  0.994  0.000  0.000
  0.000  0.000  0.000  1.002 -0.000
  0.000  0.000  0.000 -0.000  0.985
atomic mag. moment =    -4.232202
N of occupied +U levels =   45.686739
 --- exit write_ns ---

 ------ SPIN UP ------------

          k = 0.0000 0.0000 0.0000 ( 13925 PWs)   bands (ev):

   -66.7792 -66.7781 -66.7064 -66.6936 -66.6269 -62.2259 -62.1358 -62.1240
   -35.5481 -35.5479 -35.4961 -35.4961 -35.4943 -35.4943 -35.4778 -35.4626
   -35.4229 -35.4229 -35.4116 -35.4116 -35.4068 -35.3407 -35.3407 -31.0529
   -31.0418 -31.0418 -30.9625 -30.9542 -30.9542 -30.9512 -30.9423 -30.9423
     5.7509   5.8766   5.9578   6.3318   6.3906   6.9795   7.0811   7.6142
     8.2760   8.3856   8.3883   8.4072   8.4414   8.5452   8.6007   8.7176
     8.7774   8.8041   8.8628   8.9122   9.0322   9.1650   9.2023   9.2762
     9.3016   9.3724   9.4476   9.4766   9.6055   9.7131   9.8759   9.8988
     9.9111   9.9385  10.0216  10.0986  10.1164  10.1164  10.1603  10.1771
    10.1771  10.1898  10.1898  10.2308  10.2837  10.2906  10.3338  10.3338
    10.3490  10.3490  10.5322  10.5408  10.5690  10.5690  10.5748  10.5748
    10.5959  10.6007  10.6007  10.6106  10.6106  10.6562  10.6562  10.6639
    10.7010  10.7010  10.7373  10.7665  10.7665  10.9722  10.9818  10.9818
    11.0191  11.0431  11.0431  11.0938  11.1501  11.2267  11.2505  11.2735
    11.3860  11.3860  11.3879  11.4659  11.5547  11.5547  11.6465  11.6621
    11.7168  11.7508  11.8181  11.8679  11.8679  11.8895  11.9588  11.9839
    11.9839  12.0813  12.0983  12.1664  12.1855  12.2411  12.2752  12.2752
    12.5584  12.5584  12.5960  12.6698  12.6921  12.6921  12.8160  12.8584
    12.9755  12.9883  13.0754  13.2310  13.7643  14.0020  14.8331  15.5076
    16.1845  16.8306  16.8306  16.8832  16.8832  16.9329  16.9859  17.0421
    17.0960  17.1245  17.1245  17.1410  17.1949  17.5201  17.5617  17.5861
    18.4016  19.4138  19.7642  20.0622  20.0622  20.3986  20.3986  20.5128
    20.5128  21.4231

[...]

          k =-0.5000-0.5000 0.0000 ( 13964 PWs)   bands (ev):

[...]

 ------ SPIN DOWN ----------

[...]

          k = 0.3750-0.5000-0.0484 ( 13940 PWs)   bands (ev):

[...]

          k =-0.5000-0.5000-0.0484 ( 13992 PWs)   bands (ev):

   -66.8100 -66.7235 -66.7097 -62.1706 -62.1703 -62.1206 -62.1103 -62.0627
   -35.5766 -35.5388 -35.5388 -35.4906 -35.4803 -35.4540 -35.4540 -35.4388
   -35.4388 -31.0054 -31.0054 -31.0041 -31.0041 -30.9945 -30.9911 -30.9534
   -30.9534 -30.9470 -30.9451 -30.9451 -30.9334 -30.8943 -30.8943 -30.8942
     8.1098   8.1127   8.1929   8.2350   8.5207   8.5211   8.6583   8.6592
     8.9537   8.9543   9.0149   9.0595   9.2535   9.2535   9.2787   9.2787
     9.3280   9.3516   9.3625   9.3625   9.3629   9.3644   9.3771   9.3771
     9.5575   9.5575   9.5641   9.5641   9.8618   9.8618   9.8707   9.8707
     9.9310   9.9310   9.9332   9.9332   9.9379   9.9553   9.9633  10.0730
    10.0730  10.2748  10.2748  10.3119  10.3119  10.5420  10.6182  10.6279
    10.6679  10.6758  10.7856  10.7856  10.8887  10.8887  11.1402  11.1440
    11.1542  11.2812  11.3411  11.3411  11.4000  11.4329  11.4341  11.4728
    11.4728  11.4814  11.4963  11.9188  11.9600  11.9663  11.9676  11.9676
    11.9725  11.9735  11.9948  12.0038  12.0093  12.0279  12.0590  12.0629
    12.0681  12.0762  12.0917  12.0975  12.1201  12.1423  12.2053  12.2185
    12.2196  12.2645  12.3150  12.3181  12.3181  12.3408  12.3429  13.3874
    13.4003  13.4138  13.4168  13.4281  13.9295  13.9295  13.9782  13.9782
    14.3695  14.3695  14.5428  14.5428  14.7408  14.7408  15.2524  15.2524
    15.9071  15.9071  16.6140  16.6447  16.6447  16.6875  16.6956  16.8053
    16.8849  16.9804  16.9815  17.1183  17.2410  17.2410  17.6353  17.6353
    17.7972  17.8071  17.8128  17.8736  17.8736  17.9225  18.0777  18.0812
    18.1403  18.1450  18.1979  18.2047  18.2418  18.2546  18.5232  18.7739
    18.7788  18.7788

     the Fermi energy is    15.2635 ev

!    total energy              =  -14694.00718264 Ry
     Harris-Foulkes estimate   =  -14694.00717902 Ry
     estimated scf accuracy    <       0.00000079 Ry

     total all-electron energy =   -626921.602905 Ry

     The total energy is the sum of the following terms:

     one-electron contribution =    -714.50415023 Ry
     hartree contribution      =     656.55242670 Ry
     xc contribution           =    -737.87707419 Ry
     ewald contribution        =   -2196.78933708 Ry
     Hubbard energy            =       0.45129300 Ry
     one-center paw contrib.   =  -11701.84034084 Ry

     total magnetization       =     8.74 Bohr mag/cell
     absolute magnetization    =    37.27 Bohr mag/cell

     convergence has been achieved in  30 iterations

     Writing output data file mnau2.save/

     General routines

     Parallel routines

     Hubbard U routines

   This run was terminated on:  23:53: 0   6Apr2019

   JOB DONE.