     Program PWSCF v.6.3MaX starts on  6Apr2019 at 21:27:12

     R & G space division:  proc/nbgrp/npool/nimage =      32
     Waiting for input...
     Reading input from standard input

     Current dimensions of program PWSCF are:
     Max number of different atomic species (ntypx) = 10
     Max number of k-points (npk) =  40000
     Max angular momentum in pseudopotentials (lmaxx) =  3
               file Mn.pbe-spn-kjpaw_psl.0.3.1.UPF: wavefunction(s)  3P 3D renormalized
               file Mn.pbe-spn-kjpaw_psl.0.3.1.UPF: wavefunction(s)  3P 3D renormalized
               file Au.pbe-dn-kjpaw_psl.0.1.UPF: wavefunction(s)  6S 6P 5D renormalized

     bravais-lattice index     =            0
     lattice parameter (alat)  =       6.4153  a.u.
     unit-cell volume          =    2724.7774 (a.u.)^3
     number of atoms/cell      =           24
     number of atomic types    =            3
     number of electrons       =       296.00
     number of Kohn-Sham states=          178
     kinetic-energy cutoff     =      45.0000  Ry
     charge density cutoff     =     400.0000  Ry
     convergence threshold     =      1.0E-06
     mixing beta               =       0.1000
     number of iterations used =            8  plain     mixing
     Exchange-correlation      = SLA PW PBX PBC ( 1  4  3  4 0 0)

     celldm(1)=   6.415315  celldm(2)=   0.000000  celldm(3)=   0.000000
     celldm(4)=   0.000000  celldm(5)=   0.000000  celldm(6)=   0.000000

     crystal axes: (cart. coord. in units of alat)
               a(1) = (   1.000000   0.000000   0.000000 )
               a(2) = (   0.000000   1.000000   0.000000 )
               a(3) = (   0.000000   0.000000  10.319937 )

     reciprocal axes: (cart. coord. in units 2 pi/alat)
               b(1) = (  1.000000  0.000000  0.000000 )
               b(2) = (  0.000000  1.000000  0.000000 )
               b(3) = (  0.000000  0.000000  0.096900 )

     PseudoPot. # 1 for Mn read from file:
     ./pseudo/Mn.pbe-spn-kjpaw_psl.0.3.1.UPF
     MD5 check sum: 7b43a3fb0e93e198b8dd8488d8cf503e
     Pseudo is Projector augmented-wave + core cor, Zval = 15.0
     Generated using "atomic" code by A. Dal Corso v.5.0.99 svn rev. 10869
     Shape of augmentation charge: PSQ
     Using radial grid of 1187 points,  6 beta functions with:
                l(1) =   0
                l(2) =   0
                l(3) =   1
                l(4) =   1
                l(5) =   2
                l(6) =   2
     Q(r) pseudized with 0 coefficients

     PseudoPot. # 2 for Mn read from file:
     ./pseudo/Mn.pbe-spn-kjpaw_psl.0.3.1.UPF
     MD5 check sum: 7b43a3fb0e93e198b8dd8488d8cf503e
     Pseudo is Projector augmented-wave + core cor, Zval = 15.0
     Generated using "atomic" code by A. Dal Corso v.5.0.99 svn rev. 10869
     Shape of augmentation charge: PSQ
     Using radial grid of 1187 points,  6 beta functions with:
                l(1) =   0
                l(2) =   0
                l(3) =   1
                l(4) =   1
                l(5) =   2
                l(6) =   2
     Q(r) pseudized with 0 coefficients

     PseudoPot. # 3 for Au read from file:
     ./pseudo/Au.pbe-dn-kjpaw_psl.0.1.UPF
     MD5 check sum: be11e2e8e535ebe2b3ccfb4f88f554cb
     Pseudo is Projector augmented-wave + core cor, Zval = 11.0
     Generated using "atomic" code by A. Dal Corso v.5.0.2 svn rev. 9415
     Shape of augmentation charge: PSQ
     Using radial grid of 1279 points,  6 beta functions with:
                l(1) =   0
                l(2) =   0
                l(3) =   1
                l(4) =   1
                l(5) =   2
                l(6) =   2
     Q(r) pseudized with 0 coefficients

     atomic species   valence    mass     pseudopotential
        Mn1           15.00    54.93800     Mn( 1.00)
        Mn2           15.00    54.93800     Mn( 1.00)
        Au            11.00   196.96600     Au( 1.00)

     Starting magnetic structure
     atomic species   magnetization
        Mn1          0.800
        Mn2         -0.800
        Au           0.000

     Full LDA+U calculation (l_max = 2) with parameters (eV):
     U(  1) =   3.1200   J(  1) =   0.7000   B(  1) =   0.0803
     U(  2) =   3.1200   J(  2) =   0.7000   B(  2) =   0.0803

      8 Sym. Ops. (no inversion) found

   Cartesian axes

     site n.     atom                  positions (alat units)
         1           Mn1 tau(   1) = (   0.0000000   0.0000000   0.0000000  )
         2           Mn1 tau(   2) = (   0.5000000   0.5000000   1.2899921  )
         3           Mn1 tau(   3) = (   0.0000000   0.0000000   2.5799843  )
         4           Mn2 tau(   4) = (   0.5000000   0.5000000   3.8699764  )
         5           Mn1 tau(   5) = (   0.0000000   0.0000000   5.1599686  )
         6           Mn2 tau(   6) = (   0.5000000   0.5000000   6.4499607  )
         7           Mn2 tau(   7) = (   0.0000000   0.0000000   7.7399528  )
         8           Mn2 tau(   8) = (   0.5000000   0.5000000   9.0299450  )
         9           Au  tau(   9) = (   0.5000000   0.5000000   0.4127975  )
        10           Au  tau(  10) = (   0.0000000   0.0000000   0.8771947  )
        11           Au  tau(  11) = (   0.0000000   0.0000000   1.7027896  )
        12           Au  tau(  12) = (   0.5000000   0.5000000   2.1671868  )
        13           Au  tau(  13) = (   0.5000000   0.5000000   2.9927818  )
        14           Au  tau(  14) = (   0.0000000   0.0000000   3.4571789  )
        15           Au  tau(  15) = (   0.0000000   0.0000000   4.2827739  )
        16           Au  tau(  16) = (   0.5000000   0.5000000   4.7471711  )
        17           Au  tau(  17) = (   0.5000000   0.5000000   5.5727660  )
        18           Au  tau(  18) = (   0.0000000   0.0000000   6.0371632  )
        19           Au  tau(  19) = (   0.0000000   0.0000000   6.8627582  )
        20           Au  tau(  20) = (   0.5000000   0.5000000   7.3271553  )
        21           Au  tau(  21) = (   0.5000000   0.5000000   8.1527503  )
        22           Au  tau(  22) = (   0.0000000   0.0000000   8.6171475  )
        23           Au  tau(  23) = (   0.0000000   0.0000000   9.4427424  )
        24           Au  tau(  24) = (   0.5000000   0.5000000   9.9071396  )

     number of k points=    30 (tetrahedron method)
                       cart. coord. in units 2pi/alat
        k(    1) = (   0.0000000   0.0000000   0.0000000), wk =   0.0078125
        k(    2) = (   0.0000000   0.0000000  -0.0484499), wk =   0.0078125
        k(    3) = (   0.0000000   0.1250000   0.0000000), wk =   0.0312500
        k(    4) = (   0.0000000   0.1250000  -0.0484499), wk =   0.0312500
        k(    5) = (   0.0000000   0.2500000   0.0000000), wk =   0.0312500
        k(    6) = (   0.0000000   0.2500000  -0.0484499), wk =   0.0312500
        k(    7) = (   0.0000000   0.3750000   0.0000000), wk =   0.0312500
        k(    8) = (   0.0000000   0.3750000  -0.0484499), wk =   0.0312500
        k(    9) = (   0.0000000  -0.5000000   0.0000000), wk =   0.0156250
        k(   10) = (   0.0000000  -0.5000000  -0.0484499), wk =   0.0156250
        k(   11) = (   0.1250000   0.1250000   0.0000000), wk =   0.0312500
        k(   12) = (   0.1250000   0.1250000  -0.0484499), wk =   0.0312500
        k(   13) = (   0.1250000   0.2500000   0.0000000), wk =   0.0625000
        k(   14) = (   0.1250000   0.2500000  -0.0484499), wk =   0.0625000
        k(   15) = (   0.1250000   0.3750000   0.0000000), wk =   0.0625000
        k(   16) = (   0.1250000   0.3750000  -0.0484499), wk =   0.0625000
        k(   17) = (   0.1250000  -0.5000000   0.0000000), wk =   0.0312500
        k(   18) = (   0.1250000  -0.5000000  -0.0484499), wk =   0.0312500
        k(   19) = (   0.2500000   0.2500000   0.0000000), wk =   0.0312500
        k(   20) = (   0.2500000   0.2500000  -0.0484499), wk =   0.0312500
        k(   21) = (   0.2500000   0.3750000   0.0000000), wk =   0.0625000
        k(   22) = (   0.2500000   0.3750000  -0.0484499), wk =   0.0625000
        k(   23) = (   0.2500000  -0.5000000   0.0000000), wk =   0.0312500
        k(   24) = (   0.2500000  -0.5000000  -0.0484499), wk =   0.0312500
        k(   25) = (   0.3750000   0.3750000   0.0000000), wk =   0.0312500
        k(   26) = (   0.3750000   0.3750000  -0.0484499), wk =   0.0312500
        k(   27) = (   0.3750000  -0.5000000   0.0000000), wk =   0.0312500
        k(   28) = (   0.3750000  -0.5000000  -0.0484499), wk =   0.0312500
        k(   29) = (  -0.5000000  -0.5000000   0.0000000), wk =   0.0078125
        k(   30) = (  -0.5000000  -0.5000000  -0.0484499), wk =   0.0078125

     Check: negative/imaginary core charge=   -0.000006    0.000000

     Initial potential from superposition of free atoms

     starting charge  295.99426, renormalised to  296.00000
     Number of +U iterations with fixed ns =  0
     Starting occupations:
 --- enter write_ns ---
 LDA+U parameters:
U(  1) =   3.1200   J(  1) =   0.7000   B(  1) =   0.0803
U(  2) =   3.1200   J(  2) =   0.7000   B(  2) =   0.0803
atom    1   Tr[ns(na)] (up, down, total) =   5.00000  0.00000  5.00000
   spin  1
    eigenvalues:
  1.000  1.000  1.000  1.000  1.000
    eigenvectors:
  1.000  0.000  0.000  0.000  0.000
  0.000  1.000  0.000  0.000  0.000
  0.000  0.000  1.000  0.000  0.000
  0.000  0.000  0.000  1.000  0.000
  0.000  0.000  0.000  0.000  1.000
    occupations:
  1.000  0.000  0.000  0.000  0.000
  0.000  1.000  0.000  0.000  0.000
  0.000  0.000  1.000  0.000  0.000
  0.000  0.000  0.000  1.000  0.000
  0.000  0.000  0.000  0.000  1.000
   spin  2
    eigenvalues:
  0.000  0.000  0.000  0.000  0.000
    eigenvectors:
  1.000  0.000  0.000  0.000  0.000
  0.000  1.000  0.000  0.000  0.000
  0.000  0.000  1.000  0.000  0.000
  0.000  0.000  0.000  1.000  0.000
  0.000  0.000  0.000  0.000  1.000
    occupations:
  0.000  0.000  0.000  0.000  0.000
  0.000  0.000  0.000  0.000  0.000
  0.000  0.000  0.000  0.000  0.000
  0.000  0.000  0.000  0.000  0.000
  0.000  0.000  0.000  0.000  0.000
atomic mag. moment =     5.000000
atom    2   Tr[ns(na)] (up, down, total) =   5.00000  0.00000  5.00000
   spin  1
    eigenvalues:
  1.000  1.000  1.000  1.000  1.000
    eigenvectors:
  1.000  0.000  0.000  0.000  0.000
  0.000  1.000  0.000  0.000  0.000
  0.000  0.000  1.000  0.000  0.000
  0.000  0.000  0.000  1.000  0.000
  0.000  0.000  0.000  0.000  1.000
    occupations:
  1.000  0.000  0.000  0.000  0.000
  0.000  1.000  0.000  0.000  0.000
  0.000  0.000  1.000  0.000  0.000
  0.000  0.000  0.000  1.000  0.000
  0.000  0.000  0.000  0.000  1.000
   spin  2
    eigenvalues:
  0.000  0.000  0.000  0.000  0.000
    eigenvectors:
  1.000  0.000  0.000  0.000  0.000
  0.000  1.000  0.000  0.000  0.000
  0.000  0.000  1.000  0.000  0.000
  0.000  0.000  0.000  1.000  0.000
  0.000  0.000  0.000  0.000  1.000
    occupations:
  0.000  0.000  0.000  0.000  0.000
  0.000  0.000  0.000  0.000  0.000
  0.000  0.000  0.000  0.000  0.000
  0.000  0.000  0.000  0.000  0.000
  0.000  0.000  0.000  0.000  0.000
atomic mag. moment =     5.000000
atom    3   Tr[ns(na)] (up, down, total) =   5.00000  0.00000  5.00000
   spin  1
    eigenvalues:
[...]
  0.000  0.000  0.000  0.000  1.000
    occupations:
  0.074 -0.000 -0.000  0.000  0.000
 -0.000  0.081 -0.000  0.000  0.000
 -0.000 -0.000  0.081  0.000  0.000
  0.000  0.000  0.000  0.053 -0.000
  0.000  0.000  0.000 -0.000  0.120
   spin  2
    eigenvalues:
  1.003  1.003  1.003  1.004  1.004
    eigenvectors:
  0.000  0.000  0.000  1.000  0.000
  0.000  0.118  0.882  0.000  0.000
  0.000  0.882  0.118  0.000  0.000
  0.000  0.000  0.000  0.000  1.000
  1.000  0.000  0.000  0.000  0.000
    occupations:
  1.004 -0.000 -0.000  0.000  0.000
 -0.000  1.003 -0.000  0.000  0.000
 -0.000 -0.000  1.003  0.000  0.000
  0.000  0.000  0.000  1.004 -0.000
  0.000  0.000  0.000 -0.000  1.003
atomic mag. moment =    -4.609094
N of occupied +U levels =   43.401092
 --- exit write_ns ---

     total energy              =  -14687.27806862 Ry
     Harris-Foulkes estimate   =  -14685.81886839 Ry
     estimated scf accuracy    <      11.55436061 Ry

     total magnetization       =    -0.00 Bohr mag/cell
     absolute magnetization    =    41.56 Bohr mag/cell

     iteration #  2     ecut=    45.00 Ry     beta= 0.10
     Davidson diagonalization with overlap
     ethr =  3.90E-03,  avg # of iterations =  1.0

[...]

     iteration # 15     ecut=    45.00 Ry     beta= 0.10
     Davidson diagonalization with overlap
     c_bands:  1 eigenvalues not converged
     c_bands:  1 eigenvalues not converged
     ethr =  2.13E-06,  avg # of iterations =  4.3

[...]

     total energy              =  -14694.00464588 Ry
     Harris-Foulkes estimate   =  -14694.00464484 Ry
     estimated scf accuracy    <       0.00000239 Ry

[...]

     iteration # 29     ecut=    45.00 Ry     beta= 0.10
     Davidson diagonalization with overlap
     ethr =  8.07E-10,  avg # of iterations =  1.6

     Magnetic moment per site:
     atom:    1    charge:   13.5490    magn:    4.2309    constr:    0.0000
     atom:    2    charge:   13.5527    magn:    4.2051    constr:    0.0000
     atom:    3    charge:   13.5460    magn:    4.2506    constr:    0.0000
     atom:    4    charge:   13.5433    magn:   -4.2585    constr:    0.0000
     atom:    5    charge:   13.5432    magn:    4.2584    constr:    0.0000
     atom:    6    charge:   13.5461    magn:   -4.2506    constr:    0.0000
     atom:    7    charge:   13.5525    magn:   -4.2051    constr:    0.0000
     atom:    8    charge:   13.5491    magn:   -4.2309    constr:    0.0000
     atom:    9    charge:    9.1217    magn:    0.0335    constr:    0.0000
     atom:   10    charge:    9.1219    magn:    0.0357    constr:    0.0000
     atom:   11    charge:    9.1223    magn:    0.0379    constr:    0.0000
     atom:   12    charge:    9.1220    magn:    0.0338    constr:    0.0000
     atom:   13    charge:    9.1232    magn:    0.0406    constr:    0.0000
     atom:   14    charge:    9.1252    magn:   -0.0386    constr:    0.0000
     atom:   15    charge:    9.1245    magn:   -0.0422    constr:    0.0000
     atom:   16    charge:    9.1244    magn:    0.0422    constr:    0.0000
     atom:   17    charge:    9.1251    magn:    0.0386    constr:    0.0000
     atom:   18    charge:    9.1233    magn:   -0.0406    constr:    0.0000
     atom:   19    charge:    9.1221    magn:   -0.0338    constr:    0.0000
     atom:   20    charge:    9.1222    magn:   -0.0379    constr:    0.0000
     atom:   21    charge:    9.1218    magn:   -0.0357    constr:    0.0000
     atom:   22    charge:    9.1218    magn:   -0.0335    constr:    0.0000
     atom:   23    charge:    9.1234    magn:   -0.0389    constr:    0.0000
     atom:   24    charge:    9.1232    magn:    0.0389    constr:    0.0000

     End of self-consistent calculation
 --- enter write_ns ---
 LDA+U parameters:
U(  1) =   3.1200   J(  1) =   0.7000   B(  1) =   0.0803
U(  2) =   3.1200   J(  2) =   0.7000   B(  2) =   0.0803
atom    1   Tr[ns(na)] (up, down, total) =   4.97103  0.74084  5.71187
   spin  1
    eigenvalues:
  0.984  0.994  0.994  0.997  1.002
    eigenvectors:
  0.000  0.000  0.000  1.000  0.000
  0.000  0.126  0.874  0.000  0.000
  0.000  0.874  0.126  0.000  0.000
  0.000  0.000  0.000  0.000  1.000
  1.000  0.000  0.000  0.000  0.000
    occupations:
  0.997 -0.000 -0.000  0.000  0.000
 -0.000  0.994 -0.000  0.000  0.000
 -0.000 -0.000  0.994  0.000  0.000
  0.000  0.000  0.000  1.002 -0.000
  0.000  0.000  0.000 -0.000  0.984
   spin  2
    eigenvalues:
  0.065  0.138  0.141  0.141  0.256
    eigenvectors:
  0.000  1.000  0.000  0.000  0.000
  0.000  0.000  0.132  0.868  0.000
  0.000  0.000  0.868  0.132  0.000
  1.000  0.000  0.000  0.000  0.000
  0.000  0.000  0.000  0.000  1.000
    occupations:
  0.138 -0.000 -0.000  0.000  0.000
 -0.000  0.141 -0.000  0.000  0.000
 -0.000 -0.000  0.141  0.000  0.000
  0.000  0.000  0.000  0.065 -0.000
  0.000  0.000  0.000 -0.000  0.256
atomic mag. moment =     4.230187
atom    2   Tr[ns(na)] (up, down, total) =   4.97003  0.76171  5.73174
   spin  1
    eigenvalues:
  0.984  0.993  0.993  0.996  1.002
    eigenvectors:
  0.000  0.000  0.000  1.000  0.000
  0.000  0.111  0.889  0.000  0.000
  0.000  0.889  0.111  0.000  0.000
  0.000  0.000  0.000  0.000  1.000
  1.000  0.000  0.000  0.000  0.000
    occupations:
  0.996 -0.000 -0.000  0.000  0.000
 -0.000  0.993 -0.000  0.000  0.000
 -0.000 -0.000  0.993  0.000  0.000
  0.000  0.000  0.000  1.002 -0.000
  0.000  0.000  0.000 -0.000  0.984
   spin  2
    eigenvalues:
  0.064  0.143  0.143  0.143  0.269
    eigenvectors:
  0.000  1.000  0.000  0.000  0.000
  0.000  0.000  0.136  0.864  0.000
  0.000  0.000  0.864  0.136  0.000
  1.000  0.000  0.000  0.000  0.000
  0.000  0.000  0.000  0.000  1.000
    occupations:
  0.143 -0.000 -0.000  0.000  0.000
 -0.000  0.143 -0.000  0.000  0.000
 -0.000 -0.000  0.143  0.000  0.000
  0.000  0.000  0.000  0.064 -0.000
  0.000  0.000  0.000 -0.000  0.269
atomic mag. moment =     4.208317
atom    3   Tr[ns(na)] (up, down, total) =   4.97360  0.72446  5.69806
   spin  1
    eigenvalues:
  0.985  0.994  0.994  0.998  1.002
    eigenvectors:
  0.000  0.000  0.000  1.000  0.000
  0.000  0.169  0.831  0.000  0.000
  0.000  0.831  0.169  0.000  0.000
  0.000  0.000  0.000  0.000  1.000
  1.000  0.000  0.000  0.000  0.000
    occupations:
  0.998 -0.000 -0.000  0.000  0.000
 -0.000  0.994 -0.000  0.000  0.000
 -0.000 -0.000  0.994  0.000  0.000
  0.000  0.000  0.000  1.002 -0.000
  0.000  0.000  0.000 -0.000  0.985
   spin  2
    eigenvalues:
  0.066  0.123  0.144  0.144  0.247
    eigenvectors:
  0.000  1.000  0.000  0.000  0.000
  0.000  0.000  0.156  0.844  0.000
  0.000  0.000  0.844  0.156  0.000
  1.000  0.000  0.000  0.000  0.000
  0.000  0.000  0.000  0.000  1.000
    occupations:
  0.123 -0.000 -0.000  0.000  0.000
 -0.000  0.144 -0.000  0.000  0.000
 -0.000 -0.000  0.144  0.000  0.000
  0.000  0.000  0.000  0.066 -0.000
  0.000  0.000  0.000 -0.000  0.247
atomic mag. moment =     4.249144
atom    4   Tr[ns(na)] (up, down, total) =   0.71734  4.97202  5.68936
   spin  1
    eigenvalues:
  0.066  0.116  0.145  0.145  0.245
    eigenvectors:
  0.000  1.000  0.000  0.000  0.000
  0.000  0.000  0.118  0.882  0.000
  0.000  0.000  0.882  0.118  0.000
  1.000  0.000  0.000  0.000  0.000
  0.000  0.000  0.000  0.000  1.000
    occupations:
  0.116 -0.000 -0.000  0.000  0.000
 -0.000  0.145 -0.000  0.000  0.000
 -0.000 -0.000  0.145  0.000  0.000
  0.000  0.000  0.000  0.066 -0.000
  0.000  0.000  0.000 -0.000  0.245
   spin  2
    eigenvalues:
  0.985  0.994  0.994  0.996  1.003
    eigenvectors:
  0.000  0.000  0.000  1.000  0.000
  0.000  0.123  0.877  0.000  0.000
  0.000  0.877  0.123  0.000  0.000
  0.000  0.000  0.000  0.000  1.000
  1.000  0.000  0.000  0.000  0.000
    occupations:
  0.996 -0.000 -0.000  0.000  0.000
 -0.000  0.994 -0.000  0.000  0.000
 -0.000 -0.000  0.994  0.000  0.000
  0.000  0.000  0.000  1.003 -0.000
  0.000  0.000  0.000 -0.000  0.985
atomic mag. moment =    -4.254685
atom    5   Tr[ns(na)] (up, down, total) =   4.97202  0.71736  5.68939
   spin  1
    eigenvalues:
  0.985  0.994  0.994  0.996  1.003
    eigenvectors:
  0.000  0.000  0.000  1.000  0.000
  0.000  0.117  0.883  0.000  0.000
  0.000  0.883  0.117  0.000  0.000
  0.000  0.000  0.000  0.000  1.000
  1.000  0.000  0.000  0.000  0.000
    occupations:
  0.996 -0.000 -0.000  0.000  0.000
 -0.000  0.994 -0.000  0.000  0.000
 -0.000 -0.000  0.994  0.000  0.000
  0.000  0.000  0.000  1.003 -0.000
  0.000  0.000  0.000 -0.000  0.985
   spin  2
    eigenvalues:
  0.066  0.116  0.145  0.145  0.245
    eigenvectors:
  0.000  1.000  0.000  0.000  0.000
  0.000  0.000  0.140  0.860  0.000
  0.000  0.000  0.860  0.140  0.000
  1.000  0.000  0.000  0.000  0.000
  0.000  0.000  0.000  0.000  1.000
    occupations:
  0.116 -0.000 -0.000  0.000  0.000
 -0.000  0.145 -0.000  0.000  0.000
 -0.000 -0.000  0.145  0.000  0.000
  0.000  0.000  0.000  0.066 -0.000
  0.000  0.000  0.000 -0.000  0.245
atomic mag. moment =     4.254661
atom    6   Tr[ns(na)] (up, down, total) =   0.72445  4.97360  5.69806
   spin  1
    eigenvalues:
  0.066  0.123  0.144  0.144  0.247
    eigenvectors:
  0.000  1.000  0.000  0.000  0.000
  0.000  0.000  0.150  0.850  0.000
  0.000  0.000  0.850  0.150  0.000
  1.000  0.000  0.000  0.000  0.000
  0.000  0.000  0.000  0.000  1.000
    occupations:
  0.123 -0.000 -0.000  0.000  0.000
 -0.000  0.144 -0.000  0.000  0.000
 -0.000 -0.000  0.144  0.000  0.000
  0.000  0.000  0.000  0.066 -0.000
  0.000  0.000  0.000 -0.000  0.247
   spin  2
    eigenvalues:
  0.985  0.994  0.994  0.998  1.002
    eigenvectors:
  0.000  0.000  0.000  1.000  0.000
  0.000  0.112  0.888  0.000  0.000
  0.000  0.888  0.112  0.000  0.000
  0.000  0.000  0.000  0.000  1.000
  1.000  0.000  0.000  0.000  0.000
    occupations:
  0.998 -0.000 -0.000  0.000  0.000
 -0.000  0.994 -0.000  0.000  0.000
 -0.000 -0.000  0.994  0.000  0.000
  0.000  0.000  0.000  1.002 -0.000
  0.000  0.000  0.000 -0.000  0.985
atomic mag. moment =    -4.249151
atom    7   Tr[ns(na)] (up, down, total) =   0.76168  4.97003  5.73171
   spin  1
    eigenvalues:
  0.064  0.143  0.143  0.143  0.269
    eigenvectors:
  0.000  1.000  0.000  0.000  0.000
  0.000  0.000  0.120  0.880  0.000
  0.000  0.000  0.880  0.120  0.000
  1.000  0.000  0.000  0.000  0.000
  0.000  0.000  0.000  0.000  1.000
    occupations:
  0.143 -0.000 -0.000  0.000  0.000
 -0.000  0.143 -0.000  0.000  0.000
 -0.000 -0.000  0.143  0.000  0.000
  0.000  0.000  0.000  0.064 -0.000
  0.000  0.000  0.000 -0.000  0.269
   spin  2
    eigenvalues:
  0.984  0.993  0.993  0.996  1.002
    eigenvectors:
  0.000  0.000  0.000  1.000  0.000
  0.000  0.109  0.891  0.000  0.000
  0.000  0.891  0.109  0.000  0.000
  0.000  0.000  0.000  0.000  1.000
  1.000  0.000  0.000  0.000  0.000
    occupations:
  0.996 -0.000 -0.000  0.000  0.000
 -0.000  0.993 -0.000  0.000  0.000
 -0.000 -0.000  0.993  0.000  0.000
  0.000  0.000  0.000  1.002 -0.000
  0.000  0.000  0.000 -0.000  0.984
atomic mag. moment =    -4.208345
atom    8   Tr[ns(na)] (up, down, total) =   0.74085  4.97103  5.71189
   spin  1
    eigenvalues:
  0.065  0.138  0.141  0.141  0.256
    eigenvectors:
  0.000  1.000  0.000  0.000  0.000
  0.000  0.000  0.093  0.907  0.000
  0.000  0.000  0.907  0.093  0.000
  1.000  0.000  0.000  0.000  0.000
  0.000  0.000  0.000  0.000  1.000
    occupations:
  0.138 -0.000 -0.000  0.000  0.000
 -0.000  0.141 -0.000  0.000  0.000
 -0.000 -0.000  0.141  0.000  0.000
  0.000  0.000  0.000  0.065 -0.000
  0.000  0.000  0.000 -0.000  0.256
   spin  2
    eigenvalues:
  0.985  0.994  0.994  0.997  1.002
    eigenvectors:
  0.000  0.000  0.000  1.000  0.000
  0.000  0.097  0.903  0.000  0.000
  0.000  0.903  0.097  0.000  0.000
  0.000  0.000  0.000  0.000  1.000
  1.000  0.000  0.000  0.000  0.000
    occupations:
  0.997 -0.000 -0.000  0.000  0.000
 -0.000  0.994 -0.000  0.000  0.000
 -0.000 -0.000  0.994  0.000  0.000
  0.000  0.000  0.000  1.002 -0.000
  0.000  0.000  0.000 -0.000  0.985
atomic mag. moment =    -4.230179
N of occupied +U levels =   45.662070
 --- exit write_ns ---

 ------ SPIN UP ------------

          k = 0.0000 0.0000 0.0000 ( 13925 PWs)   bands (ev):

   -66.8612 -66.7592 -66.7095 -66.6140 -62.2523 -62.1543 -62.1246 -62.0511
   -35.6308 -35.5758 -35.5758 -35.5273 -35.4781 -35.4768 -35.4768 -35.4274
   -35.4274 -35.3915 -35.3294 -35.3294 -31.0762 -31.0690 -31.0690 -30.9768
   -30.9743 -30.9743 -30.9493 -30.9437 -30.9437 -30.8833 -30.8683 -30.8683
     5.7634   5.8940   5.9907   6.3450   6.4326   7.0256   7.0781   7.6178
     8.3294   8.3925   8.4032   8.4651   8.5128   8.5500   8.6332   8.8291
     8.8666   8.8797   8.9504   9.1094   9.1862   9.2185   9.2267   9.2811
     9.3196   9.3752   9.4650   9.6134   9.7256   9.7303   9.9072   9.9445
    10.0261  10.0866  10.0985  10.1117  10.1117  10.1692  10.1832  10.1832
    10.1977  10.1977  10.2544  10.2883  10.3476  10.3476  10.3482  10.3519
    10.3519  10.4921  10.5452  10.5452  10.5601  10.5857  10.5857  10.6063
    10.6063  10.6117  10.6181  10.6181  10.6525  10.6525  10.6742  10.7419
    10.7670  10.7670  10.8922  10.9608  10.9608  10.9843  11.0493  11.0493
    11.0899  11.1580  11.2396  11.2566  11.2712  11.3874  11.3874  11.3996
    11.4036  11.4782  11.4913  11.4913  11.6722  11.8144  11.8144  11.8223
    11.8656  11.9006  11.9239  11.9239  11.9643  12.0018  12.1242  12.1825
    12.1913  12.2378  12.2378  12.2528  12.3271  12.3271  12.6053  12.6971
    12.6971  12.7707  12.8206  12.8637  12.9752  13.0811  13.1158  13.6305
    13.9330  14.7675  15.1271  16.0991  16.7990  16.7990  16.8548  16.8548
    16.9099  16.9472  16.9472  16.9752  17.0098  17.0976  17.1046  17.1474
    17.1737  17.2253  17.2253  17.2283  17.5146  17.5696  17.5873  17.6555
    18.5313  19.5931  19.8266  20.0892  20.0892  20.4511  20.4511  20.5653
    20.5653  21.4749

[...]

          k =-0.5000-0.5000 0.0000 ( 13964 PWs)   bands (ev):

[...]

 ------ SPIN DOWN ----------

[...]

          k = 0.3750-0.5000-0.0484 ( 13940 PWs)   bands (ev):

[...]

          k =-0.5000-0.5000-0.0484 ( 13992 PWs)   bands (ev):

   -66.8598 -66.7578 -66.7082 -66.6127 -62.2511 -62.1531 -62.1232 -62.0499
   -35.6290 -35.5863 -35.5863 -35.5255 -35.4873 -35.4873 -35.4764 -35.4382
   -35.4382 -35.3898 -35.3401 -35.3401 -31.0826 -31.0826 -31.0739 -30.9879
   -30.9879 -30.9745 -30.9572 -30.9572 -30.9468 -30.8820 -30.8820 -30.8810
     8.0587   8.0592   8.1780   8.2069   8.2947   8.4176   8.5895   8.6543
     8.8844   8.9128   8.9613   9.0436   9.2360   9.2360   9.2877   9.2877
     9.3023   9.3350   9.3450   9.3450   9.3457   9.3604   9.3791   9.3791
     9.5501   9.5501   9.5532   9.5532   9.8419   9.8524   9.8524   9.8657
     9.8657   9.9058   9.9058   9.9247   9.9247   9.9410   9.9680   9.9999
     9.9999  10.0563  10.1319  10.1319  10.2663  10.2663  10.3539  10.3539
    10.5149  10.5981  10.6688  10.6820  10.8078  10.8078  10.9218  10.9218
    11.1096  11.1262  11.1426  11.2167  11.2219  11.3091  11.3633  11.3997
    11.3997  11.4572  11.4979  11.5275  11.5366  11.5880  11.6369  11.6369
    11.9161  11.9434  11.9528  11.9714  11.9759  11.9950  11.9979  11.9979
    12.0068  12.0136  12.0356  12.0367  12.0554  12.0699  12.0798  12.0943
    12.1031  12.1278  12.1409  12.2052  12.2101  12.2692  12.2729  12.3176
    12.3441  12.4132  12.5292  12.5292  13.3521  13.4013  13.4173  13.4387
    13.8928  13.8928  14.0261  14.0261  14.3831  14.3831  14.7030  14.7030
    14.8831  14.8831  15.8699  15.8699  15.9701  15.9701  16.5753  16.6742
    16.6949  16.8437  16.8514  16.8934  16.9849  17.0133  17.0133  17.1215
    17.4233  17.4233  17.7603  17.7757  17.7757  17.8053  17.8182  17.9328
    17.9350  18.0097  18.0934  18.1314  18.2027  18.2153  18.2752  18.5438
    18.6029  18.6029

     the Fermi energy is    15.2853 ev

!    total energy              =  -14694.00464927 Ry
     Harris-Foulkes estimate   =  -14694.00464568 Ry
     estimated scf accuracy    <       0.00000083 Ry

     total all-electron energy =   -626921.600371 Ry

     The total energy is the sum of the following terms:

     one-electron contribution =    -714.47121958 Ry
     hartree contribution      =     656.52736249 Ry
     xc contribution           =    -737.87795383 Ry
     ewald contribution        =   -2196.78933708 Ry
     Hubbard energy            =       0.44955468 Ry
     one-center paw contrib.   =  -11701.84305594 Ry

     total magnetization       =    -0.00 Bohr mag/cell
     absolute magnetization    =    37.23 Bohr mag/cell

     convergence has been achieved in  29 iterations

     Writing output data file mnau2.save/

     General routines

     Parallel routines

     Hubbard U routines

   This run was terminated on:  21:43:54   6Apr2019

   JOB DONE.