     Program PWSCF v.6.3MaX starts on  6Apr2019 at 21:58:15

     R & G space division:  proc/nbgrp/npool/nimage =      32
     Waiting for input...
     Reading input from standard input

     Current dimensions of program PWSCF are:
     Max number of different atomic species (ntypx) = 10
     Max number of k-points (npk) =  40000
     Max angular momentum in pseudopotentials (lmaxx) =  3
               file Mn.pbe-spn-kjpaw_psl.0.3.1.UPF: wavefunction(s)  3P 3D renormalized
               file Mn.pbe-spn-kjpaw_psl.0.3.1.UPF: wavefunction(s)  3P 3D renormalized
               file Au.pbe-dn-kjpaw_psl.0.1.UPF: wavefunction(s)  6S 6P 5D renormalized

     bravais-lattice index     =            0
     lattice parameter (alat)  =       6.4153  a.u.
     unit-cell volume          =    2724.7774 (a.u.)^3
     number of atoms/cell      =           24
     number of atomic types    =            3
     number of electrons       =       296.00
     number of Kohn-Sham states=          178
     kinetic-energy cutoff     =      45.0000  Ry
     charge density cutoff     =     400.0000  Ry
     convergence threshold     =      1.0E-06
     mixing beta               =       0.1000
     number of iterations used =            8  plain     mixing
     Exchange-correlation      = SLA PW PBX PBC ( 1  4  3  4 0 0)

     celldm(1)=   6.415315  celldm(2)=   0.000000  celldm(3)=   0.000000
     celldm(4)=   0.000000  celldm(5)=   0.000000  celldm(6)=   0.000000

     crystal axes: (cart. coord. in units of alat)
               a(1) = (   1.000000   0.000000   0.000000 )
               a(2) = (   0.000000   1.000000   0.000000 )
               a(3) = (   0.000000   0.000000  10.319937 )

     reciprocal axes: (cart. coord. in units 2 pi/alat)
               b(1) = (  1.000000  0.000000  0.000000 )
               b(2) = (  0.000000  1.000000  0.000000 )
               b(3) = (  0.000000  0.000000  0.096900 )

     PseudoPot. # 1 for Mn read from file:
     ./pseudo/Mn.pbe-spn-kjpaw_psl.0.3.1.UPF
     MD5 check sum: 7b43a3fb0e93e198b8dd8488d8cf503e
     Pseudo is Projector augmented-wave + core cor, Zval = 15.0
     Generated using "atomic" code by A. Dal Corso v.5.0.99 svn rev. 10869
     Shape of augmentation charge: PSQ
     Using radial grid of 1187 points,  6 beta functions with:
                l(1) =   0
                l(2) =   0
                l(3) =   1
                l(4) =   1
                l(5) =   2
                l(6) =   2
     Q(r) pseudized with 0 coefficients

     PseudoPot. # 2 for Mn read from file:
     ./pseudo/Mn.pbe-spn-kjpaw_psl.0.3.1.UPF
     MD5 check sum: 7b43a3fb0e93e198b8dd8488d8cf503e
     Pseudo is Projector augmented-wave + core cor, Zval = 15.0
     Generated using "atomic" code by A. Dal Corso v.5.0.99 svn rev. 10869
     Shape of augmentation charge: PSQ
     Using radial grid of 1187 points,  6 beta functions with:
                l(1) =   0
                l(2) =   0
                l(3) =   1
                l(4) =   1
                l(5) =   2
                l(6) =   2
     Q(r) pseudized with 0 coefficients

     PseudoPot. # 3 for Au read from file:
     ./pseudo/Au.pbe-dn-kjpaw_psl.0.1.UPF
     MD5 check sum: be11e2e8e535ebe2b3ccfb4f88f554cb
     Pseudo is Projector augmented-wave + core cor, Zval = 11.0
     Generated using "atomic" code by A. Dal Corso v.5.0.2 svn rev. 9415
     Shape of augmentation charge: PSQ
     Using radial grid of 1279 points,  6 beta functions with:
                l(1) =   0
                l(2) =   0
                l(3) =   1
                l(4) =   1
                l(5) =   2
                l(6) =   2
     Q(r) pseudized with 0 coefficients

     atomic species   valence    mass     pseudopotential
        Mn1           15.00    54.93800     Mn( 1.00)
        Mn2           15.00    54.93800     Mn( 1.00)
        Au            11.00   196.96600     Au( 1.00)

     Starting magnetic structure
     atomic species   magnetization
        Mn1          0.800
        Mn2         -0.800
        Au           0.000

     Full LDA+U calculation (l_max = 2) with parameters (eV):
     U(  1) =   3.1200   J(  1) =   0.7000   B(  1) =   0.0803
     U(  2) =   3.1200   J(  2) =   0.7000   B(  2) =   0.0803

     16 Sym. Ops., with inversion, found ( 8 have fractional translation)

   Cartesian axes

     site n.     atom                  positions (alat units)
         1           Mn1 tau(   1) = (   0.0000000   0.0000000   0.0000000  )
         2           Mn1 tau(   2) = (   0.5000000   0.5000000   1.2899921  )
         3           Mn2 tau(   3) = (   0.0000000   0.0000000   2.5799843  )
         4           Mn1 tau(   4) = (   0.5000000   0.5000000   3.8699764  )
         5           Mn1 tau(   5) = (   0.0000000   0.0000000   5.1599686  )
         6           Mn2 tau(   6) = (   0.5000000   0.5000000   6.4499607  )
         7           Mn1 tau(   7) = (   0.0000000   0.0000000   7.7399528  )
         8           Mn2 tau(   8) = (   0.5000000   0.5000000   9.0299450  )
         9           Au  tau(   9) = (   0.5000000   0.5000000   0.4127975  )
        10           Au  tau(  10) = (   0.0000000   0.0000000   0.8771947  )
        11           Au  tau(  11) = (   0.0000000   0.0000000   1.7027896  )
        12           Au  tau(  12) = (   0.5000000   0.5000000   2.1671868  )
        13           Au  tau(  13) = (   0.5000000   0.5000000   2.9927818  )
        14           Au  tau(  14) = (   0.0000000   0.0000000   3.4571789  )
        15           Au  tau(  15) = (   0.0000000   0.0000000   4.2827739  )
        16           Au  tau(  16) = (   0.5000000   0.5000000   4.7471711  )
        17           Au  tau(  17) = (   0.5000000   0.5000000   5.5727660  )
        18           Au  tau(  18) = (   0.0000000   0.0000000   6.0371632  )
        19           Au  tau(  19) = (   0.0000000   0.0000000   6.8627582  )
        20           Au  tau(  20) = (   0.5000000   0.5000000   7.3271553  )
        21           Au  tau(  21) = (   0.5000000   0.5000000   8.1527503  )
        22           Au  tau(  22) = (   0.0000000   0.0000000   8.6171475  )
        23           Au  tau(  23) = (   0.0000000   0.0000000   9.4427424  )
        24           Au  tau(  24) = (   0.5000000   0.5000000   9.9071396  )

     number of k points=    30 (tetrahedron method)
                       cart. coord. in units 2pi/alat
        k(    1) = (   0.0000000   0.0000000   0.0000000), wk =   0.0078125
        k(    2) = (   0.0000000   0.0000000  -0.0484499), wk =   0.0078125
        k(    3) = (   0.0000000   0.1250000   0.0000000), wk =   0.0312500
        k(    4) = (   0.0000000   0.1250000  -0.0484499), wk =   0.0312500
        k(    5) = (   0.0000000   0.2500000   0.0000000), wk =   0.0312500
        k(    6) = (   0.0000000   0.2500000  -0.0484499), wk =   0.0312500
        k(    7) = (   0.0000000   0.3750000   0.0000000), wk =   0.0312500
        k(    8) = (   0.0000000   0.3750000  -0.0484499), wk =   0.0312500
        k(    9) = (   0.0000000  -0.5000000   0.0000000), wk =   0.0156250
        k(   10) = (   0.0000000  -0.5000000  -0.0484499), wk =   0.0156250
        k(   11) = (   0.1250000   0.1250000   0.0000000), wk =   0.0312500
        k(   12) = (   0.1250000   0.1250000  -0.0484499), wk =   0.0312500
        k(   13) = (   0.1250000   0.2500000   0.0000000), wk =   0.0625000
        k(   14) = (   0.1250000   0.2500000  -0.0484499), wk =   0.0625000
        k(   15) = (   0.1250000   0.3750000   0.0000000), wk =   0.0625000
        k(   16) = (   0.1250000   0.3750000  -0.0484499), wk =   0.0625000
        k(   17) = (   0.1250000  -0.5000000   0.0000000), wk =   0.0312500
        k(   18) = (   0.1250000  -0.5000000  -0.0484499), wk =   0.0312500
        k(   19) = (   0.2500000   0.2500000   0.0000000), wk =   0.0312500
        k(   20) = (   0.2500000   0.2500000  -0.0484499), wk =   0.0312500
        k(   21) = (   0.2500000   0.3750000   0.0000000), wk =   0.0625000
        k(   22) = (   0.2500000   0.3750000  -0.0484499), wk =   0.0625000
        k(   23) = (   0.2500000  -0.5000000   0.0000000), wk =   0.0312500
        k(   24) = (   0.2500000  -0.5000000  -0.0484499), wk =   0.0312500
        k(   25) = (   0.3750000   0.3750000   0.0000000), wk =   0.0312500
        k(   26) = (   0.3750000   0.3750000  -0.0484499), wk =   0.0312500
        k(   27) = (   0.3750000  -0.5000000   0.0000000), wk =   0.0312500
        k(   28) = (   0.3750000  -0.5000000  -0.0484499), wk =   0.0312500
        k(   29) = (  -0.5000000  -0.5000000   0.0000000), wk =   0.0078125
        k(   30) = (  -0.5000000  -0.5000000  -0.0484499), wk =   0.0078125

     Check: negative/imaginary core charge=   -0.000006    0.000000

     Initial potential from superposition of free atoms

     starting charge  295.99426, renormalised to  296.00000
     Number of +U iterations with fixed ns =  0
     Starting occupations:
 --- enter write_ns ---
 LDA+U parameters:
U(  1) =   3.1200   J(  1) =   0.7000   B(  1) =   0.0803
U(  2) =   3.1200   J(  2) =   0.7000   B(  2) =   0.0803
atom    1   Tr[ns(na)] (up, down, total) =   5.00000  0.00000  5.00000
   spin  1
    eigenvalues:
  1.000  1.000  1.000  1.000  1.000
    eigenvectors:
  1.000  0.000  0.000  0.000  0.000
  0.000  1.000  0.000  0.000  0.000
  0.000  0.000  1.000  0.000  0.000
  0.000  0.000  0.000  1.000  0.000
  0.000  0.000  0.000  0.000  1.000
    occupations:
  1.000  0.000  0.000  0.000  0.000
  0.000  1.000  0.000  0.000  0.000
  0.000  0.000  1.000  0.000  0.000
  0.000  0.000  0.000  1.000  0.000
  0.000  0.000  0.000  0.000  1.000
   spin  2
    eigenvalues:
  0.000  0.000  0.000  0.000  0.000
    eigenvectors:
  1.000  0.000  0.000  0.000  0.000
  0.000  1.000  0.000  0.000  0.000
  0.000  0.000  1.000  0.000  0.000
  0.000  0.000  0.000  1.000  0.000
  0.000  0.000  0.000  0.000  1.000
    occupations:
  0.000  0.000  0.000  0.000  0.000
  0.000  0.000  0.000  0.000  0.000
  0.000  0.000  0.000  0.000  0.000
  0.000  0.000  0.000  0.000  0.000
  0.000  0.000  0.000  0.000  0.000
atomic mag. moment =     5.000000
atom    2   Tr[ns(na)] (up, down, total) =   5.00000  0.00000  5.00000
   spin  1
    eigenvalues:
  1.000  1.000  1.000  1.000  1.000
    eigenvectors:
  1.000  0.000  0.000  0.000  0.000
  0.000  1.000  0.000  0.000  0.000
  0.000  0.000  1.000  0.000  0.000
  0.000  0.000  0.000  1.000  0.000
  0.000  0.000  0.000  0.000  1.000
    occupations:
  1.000  0.000  0.000  0.000  0.000
  0.000  1.000  0.000  0.000  0.000
  0.000  0.000  1.000  0.000  0.000
  0.000  0.000  0.000  1.000  0.000
  0.000  0.000  0.000  0.000  1.000
   spin  2
    eigenvalues:
  0.000  0.000  0.000  0.000  0.000
    eigenvectors:
  1.000  0.000  0.000  0.000  0.000
  0.000  1.000  0.000  0.000  0.000
  0.000  0.000  1.000  0.000  0.000
  0.000  0.000  0.000  1.000  0.000
  0.000  0.000  0.000  0.000  1.000
    occupations:
  0.000  0.000  0.000  0.000  0.000
  0.000  0.000  0.000  0.000  0.000
  0.000  0.000  0.000  0.000  0.000
  0.000  0.000  0.000  0.000  0.000
  0.000  0.000  0.000  0.000  0.000
atomic mag. moment =     5.000000
atom    3   Tr[ns(na)] (up, down, total) =   0.00000  5.00000  5.00000
   spin  1
[...]
   spin  1
    eigenvalues:
  0.053  0.073  0.080  0.080  0.124
    eigenvectors:
  0.000  1.000  0.000  0.000  0.000
  0.000  0.000  0.178  0.822  0.000
  0.000  0.000  0.822  0.178  0.000
  1.000  0.000  0.000  0.000  0.000
  0.000  0.000  0.000  0.000  1.000
    occupations:
  0.073 -0.000 -0.000  0.000  0.000
 -0.000  0.080 -0.000  0.000  0.000
 -0.000 -0.000  0.080  0.000  0.000
  0.000  0.000  0.000  0.053 -0.000
  0.000  0.000  0.000 -0.000  0.124
   spin  2
    eigenvalues:
  1.003  1.003  1.003  1.004  1.004
    eigenvectors:
  0.000  0.000  0.000  1.000  0.000
  0.000  0.151  0.849  0.000  0.000
  0.000  0.849  0.151  0.000  0.000
  0.000  0.000  0.000  0.000  1.000
  1.000  0.000  0.000  0.000  0.000
    occupations:
  1.004 -0.000 -0.000  0.000  0.000
 -0.000  1.003 -0.000  0.000  0.000
 -0.000 -0.000  1.003  0.000  0.000
  0.000  0.000  0.000  1.004 -0.000
  0.000  0.000  0.000 -0.000  1.003
atomic mag. moment =    -4.606988
N of occupied +U levels =   43.425939
 --- exit write_ns ---

     total energy              =  -14687.28129226 Ry
     Harris-Foulkes estimate   =  -14685.81994107 Ry
     estimated scf accuracy    <      11.56927101 Ry

     total magnetization       =     9.98 Bohr mag/cell
     absolute magnetization    =    41.59 Bohr mag/cell

     iteration #  2     ecut=    45.00 Ry     beta= 0.10
     Davidson diagonalization with overlap
     ethr =  3.91E-03,  avg # of iterations =  1.0

[...]

     total energy              =  -14693.99980727 Ry
     Harris-Foulkes estimate   =  -14693.99980559 Ry
     estimated scf accuracy    <       0.00000410 Ry

[...]

     iteration # 23     ecut=    45.00 Ry     beta= 0.10
     Davidson diagonalization with overlap
     ethr =  7.71E-10,  avg # of iterations =  1.9

     Magnetic moment per site:
     atom:    1    charge:   13.5458    magn:    4.2444    constr:    0.0000
     atom:    2    charge:   13.5453    magn:    4.2512    constr:    0.0000
     atom:    3    charge:   13.5470    magn:   -4.2388    constr:    0.0000
     atom:    4    charge:   13.5453    magn:    4.2512    constr:    0.0000
     atom:    5    charge:   13.5458    magn:    4.2444    constr:    0.0000
     atom:    6    charge:   13.5444    magn:   -4.2584    constr:    0.0000
     atom:    7    charge:   13.5414    magn:    4.2788    constr:    0.0000
     atom:    8    charge:   13.5444    magn:   -4.2584    constr:    0.0000
     atom:    9    charge:    9.1237    magn:    0.0403    constr:    0.0000
     atom:   10    charge:    9.1236    magn:    0.0387    constr:    0.0000
     atom:   11    charge:    9.1236    magn:    0.0463    constr:    0.0000
     atom:   12    charge:    9.1231    magn:   -0.0397    constr:    0.0000
     atom:   13    charge:    9.1231    magn:   -0.0397    constr:    0.0000
     atom:   14    charge:    9.1236    magn:    0.0463    constr:    0.0000
     atom:   15    charge:    9.1236    magn:    0.0387    constr:    0.0000
     atom:   16    charge:    9.1237    magn:    0.0403    constr:    0.0000
     atom:   17    charge:    9.1242    magn:    0.0439    constr:    0.0000
     atom:   18    charge:    9.1234    magn:   -0.0394    constr:    0.0000
     atom:   19    charge:    9.1254    magn:   -0.0363    constr:    0.0000
     atom:   20    charge:    9.1252    magn:    0.0383    constr:    0.0000
     atom:   21    charge:    9.1252    magn:    0.0383    constr:    0.0000
     atom:   22    charge:    9.1254    magn:   -0.0363    constr:    0.0000
     atom:   23    charge:    9.1234    magn:   -0.0394    constr:    0.0000
     atom:   24    charge:    9.1242    magn:    0.0439    constr:    0.0000

     End of self-consistent calculation
 --- enter write_ns ---
 LDA+U parameters:
U(  1) =   3.1200   J(  1) =   0.7000   B(  1) =   0.0803
U(  2) =   3.1200   J(  2) =   0.7000   B(  2) =   0.0803
atom    1   Tr[ns(na)] (up, down, total) =   4.97301  0.72904  5.70205
   spin  1
    eigenvalues:
  0.985  0.994  0.994  0.997  1.002
    eigenvectors:
  0.000  0.000  0.000  1.000  0.000
  0.000  0.110  0.890  0.000  0.000
  0.000  0.890  0.110  0.000  0.000
  0.000  0.000  0.000  0.000  1.000
  1.000  0.000  0.000  0.000  0.000
    occupations:
  0.997 -0.000 -0.000  0.000  0.000
 -0.000  0.994 -0.000  0.000  0.000
 -0.000 -0.000  0.994  0.000  0.000
  0.000  0.000  0.000  1.002 -0.000
  0.000  0.000  0.000 -0.000  0.985
   spin  2
    eigenvalues:
  0.066  0.129  0.142  0.142  0.250
    eigenvectors:
  0.000  1.000  0.000  0.000  0.000
  0.000  0.000  0.096  0.904  0.000
  0.000  0.000  0.904  0.096  0.000
  1.000  0.000  0.000  0.000  0.000
  0.000  0.000  0.000  0.000  1.000
    occupations:
  0.129 -0.000 -0.000  0.000  0.000
 -0.000  0.142 -0.000  0.000  0.000
 -0.000 -0.000  0.142  0.000  0.000
  0.000  0.000  0.000  0.066 -0.000
  0.000  0.000  0.000 -0.000  0.250
atomic mag. moment =     4.243968
atom    2   Tr[ns(na)] (up, down, total) =   4.97377  0.72385  5.69762
   spin  1
    eigenvalues:
  0.985  0.994  0.994  0.997  1.002
    eigenvectors:
  0.000  0.000  0.000  1.000  0.000
  0.000  0.157  0.843  0.000  0.000
  0.000  0.843  0.157  0.000  0.000
  0.000  0.000  0.000  0.000  1.000
  1.000  0.000  0.000  0.000  0.000
    occupations:
  0.997 -0.000 -0.000  0.000  0.000
 -0.000  0.994 -0.000  0.000  0.000
 -0.000 -0.000  0.994  0.000  0.000
  0.000  0.000  0.000  1.002 -0.000
  0.000  0.000  0.000 -0.000  0.985
   spin  2
    eigenvalues:
  0.066  0.121  0.144  0.144  0.249
    eigenvectors:
  0.000  1.000  0.000  0.000  0.000
  0.000  0.000  0.141  0.859  0.000
  0.000  0.000  0.859  0.141  0.000
  1.000  0.000  0.000  0.000  0.000
  0.000  0.000  0.000  0.000  1.000
    occupations:
  0.121 -0.000 -0.000  0.000  0.000
 -0.000  0.144 -0.000  0.000  0.000
 -0.000 -0.000  0.144  0.000  0.000
  0.000  0.000  0.000  0.066 -0.000
  0.000  0.000  0.000 -0.000  0.249
atomic mag. moment =     4.249924
atom    3   Tr[ns(na)] (up, down, total) =   0.73570  4.96973  5.70543
   spin  1
    eigenvalues:
  0.065  0.126  0.147  0.147  0.251
    eigenvectors:
  0.000  1.000  0.000  0.000  0.000
  0.000  0.000  0.155  0.845  0.000
  0.000  0.000  0.845  0.155  0.000
  1.000  0.000  0.000  0.000  0.000
  0.000  0.000  0.000  0.000  1.000
    occupations:
  0.126 -0.000 -0.000  0.000  0.000
 -0.000  0.147 -0.000  0.000  0.000
 -0.000 -0.000  0.147  0.000  0.000
  0.000  0.000  0.000  0.065 -0.000
  0.000  0.000  0.000 -0.000  0.251
   spin  2
    eigenvalues:
  0.984  0.994  0.994  0.996  1.003
    eigenvectors:
  0.000  0.000  0.000  1.000  0.000
  0.000  0.096  0.904  0.000  0.000
  0.000  0.904  0.096  0.000  0.000
  0.000  0.000  0.000  0.000  1.000
  1.000  0.000  0.000  0.000  0.000
    occupations:
  0.996 -0.000 -0.000  0.000  0.000
 -0.000  0.994 -0.000  0.000  0.000
 -0.000 -0.000  0.994  0.000  0.000
  0.000  0.000  0.000  1.003 -0.000
  0.000  0.000  0.000 -0.000  0.984
atomic mag. moment =    -4.234034
atom    4   Tr[ns(na)] (up, down, total) =   4.97377  0.72385  5.69762
   spin  1
    eigenvalues:
  0.985  0.994  0.994  0.997  1.002
    eigenvectors:
  0.000  0.000  0.000  1.000  0.000
  0.000  0.124  0.876  0.000  0.000
  0.000  0.876  0.124  0.000  0.000
  0.000  0.000  0.000  0.000  1.000
  1.000  0.000  0.000  0.000  0.000
    occupations:
  0.997 -0.000 -0.000  0.000  0.000
 -0.000  0.994 -0.000  0.000  0.000
 -0.000 -0.000  0.994  0.000  0.000
  0.000  0.000  0.000  1.002 -0.000
  0.000  0.000  0.000 -0.000  0.985
   spin  2
    eigenvalues:
  0.066  0.121  0.144  0.144  0.249
    eigenvectors:
  0.000  1.000  0.000  0.000  0.000
  0.000  0.000  0.143  0.857  0.000
  0.000  0.000  0.857  0.143  0.000
  1.000  0.000  0.000  0.000  0.000
  0.000  0.000  0.000  0.000  1.000
    occupations:
  0.121 -0.000 -0.000  0.000  0.000
 -0.000  0.144 -0.000  0.000  0.000
 -0.000 -0.000  0.144  0.000  0.000
  0.000  0.000  0.000  0.066 -0.000
  0.000  0.000  0.000 -0.000  0.249
atomic mag. moment =     4.249924
atom    5   Tr[ns(na)] (up, down, total) =   4.97301  0.72904  5.70205
   spin  1
    eigenvalues:
  0.985  0.994  0.994  0.997  1.002
    eigenvectors:
  0.000  0.000  0.000  1.000  0.000
  0.000  0.140  0.860  0.000  0.000
  0.000  0.860  0.140  0.000  0.000
  0.000  0.000  0.000  0.000  1.000
  1.000  0.000  0.000  0.000  0.000
    occupations:
  0.997 -0.000 -0.000  0.000  0.000
 -0.000  0.994 -0.000  0.000  0.000
 -0.000 -0.000  0.994  0.000  0.000
  0.000  0.000  0.000  1.002 -0.000
  0.000  0.000  0.000 -0.000  0.985
   spin  2
    eigenvalues:
  0.066  0.129  0.142  0.142  0.250
    eigenvectors:
  0.000  1.000  0.000  0.000  0.000
  0.000  0.000  0.133  0.867  0.000
  0.000  0.000  0.867  0.133  0.000
  1.000  0.000  0.000  0.000  0.000
  0.000  0.000  0.000  0.000  1.000
    occupations:
  0.129 -0.000 -0.000  0.000  0.000
 -0.000  0.142 -0.000  0.000  0.000
 -0.000 -0.000  0.142  0.000  0.000
  0.000  0.000  0.000  0.066 -0.000
  0.000  0.000  0.000 -0.000  0.250
atomic mag. moment =     4.243968
atom    6   Tr[ns(na)] (up, down, total) =   0.71958  4.97244  5.69202
   spin  1
    eigenvalues:
  0.066  0.121  0.145  0.145  0.243
    eigenvectors:
  0.000  1.000  0.000  0.000  0.000
  0.000  0.000  0.137  0.863  0.000
  0.000  0.000  0.863  0.137  0.000
  1.000  0.000  0.000  0.000  0.000
  0.000  0.000  0.000  0.000  1.000
    occupations:
  0.121 -0.000 -0.000  0.000  0.000
 -0.000  0.145 -0.000  0.000  0.000
 -0.000 -0.000  0.145  0.000  0.000
  0.000  0.000  0.000  0.066 -0.000
  0.000  0.000  0.000 -0.000  0.243
   spin  2
    eigenvalues:
  0.985  0.994  0.994  0.997  1.003
    eigenvectors:
  0.000  0.000  0.000  1.000  0.000
  0.000  0.110  0.890  0.000  0.000
  0.000  0.890  0.110  0.000  0.000
  0.000  0.000  0.000  0.000  1.000
  1.000  0.000  0.000  0.000  0.000
    occupations:
  0.997 -0.000 -0.000  0.000  0.000
 -0.000  0.994 -0.000  0.000  0.000
 -0.000 -0.000  0.994  0.000  0.000
  0.000  0.000  0.000  1.003 -0.000
  0.000  0.000  0.000 -0.000  0.985
atomic mag. moment =    -4.252865
atom    7   Tr[ns(na)] (up, down, total) =   4.97480  0.70215  5.67695
   spin  1
    eigenvalues:
  0.985  0.994  0.994  0.999  1.003
    eigenvectors:
  0.000  0.000  0.000  1.000  0.000
  0.000  0.113  0.887  0.000  0.000
  0.000  0.887  0.113  0.000  0.000
  0.000  0.000  0.000  0.000  1.000
  1.000  0.000  0.000  0.000  0.000
    occupations:
  0.999 -0.000 -0.000  0.000  0.000
 -0.000  0.994 -0.000  0.000  0.000
 -0.000 -0.000  0.994  0.000  0.000
  0.000  0.000  0.000  1.003 -0.000
  0.000  0.000  0.000 -0.000  0.985
   spin  2
    eigenvalues:
  0.067  0.107  0.146  0.146  0.236
    eigenvectors:
  0.000  1.000  0.000  0.000  0.000
  0.000  0.000  0.128  0.872  0.000
  0.000  0.000  0.872  0.128  0.000
  1.000  0.000  0.000  0.000  0.000
  0.000  0.000  0.000  0.000  1.000
    occupations:
  0.107 -0.000 -0.000  0.000  0.000
 -0.000  0.146 -0.000  0.000  0.000
 -0.000 -0.000  0.146  0.000  0.000
  0.000  0.000  0.000  0.067 -0.000
  0.000  0.000  0.000 -0.000  0.236
atomic mag. moment =     4.272645
atom    8   Tr[ns(na)] (up, down, total) =   0.71958  4.97244  5.69202
   spin  1
    eigenvalues:
  0.066  0.121  0.145  0.145  0.243
    eigenvectors:
  0.000  1.000  0.000  0.000  0.000
  0.000  0.000  0.118  0.882  0.000
  0.000  0.000  0.882  0.118  0.000
  1.000  0.000  0.000  0.000  0.000
  0.000  0.000  0.000  0.000  1.000
    occupations:
  0.121 -0.000 -0.000  0.000  0.000
 -0.000  0.145 -0.000  0.000  0.000
 -0.000 -0.000  0.145  0.000  0.000
  0.000  0.000  0.000  0.066 -0.000
  0.000  0.000  0.000 -0.000  0.243
   spin  2
    eigenvalues:
  0.985  0.994  0.994  0.997  1.003
    eigenvectors:
  0.000  0.000  0.000  1.000  0.000
  0.000  0.104  0.896  0.000  0.000
  0.000  0.896  0.104  0.000  0.000
  0.000  0.000  0.000  0.000  1.000
  1.000  0.000  0.000  0.000  0.000
    occupations:
  0.997 -0.000 -0.000  0.000  0.000
 -0.000  0.994 -0.000  0.000  0.000
 -0.000 -0.000  0.994  0.000  0.000
  0.000  0.000  0.000  1.003 -0.000
  0.000  0.000  0.000 -0.000  0.985
atomic mag. moment =    -4.252865
N of occupied +U levels =   45.565767
 --- exit write_ns ---

 ------ SPIN UP ------------

          k = 0.0000 0.0000 0.0000 ( 13925 PWs)   bands (ev):

   -66.8392 -66.7530 -66.7530 -66.7293 -66.7293 -62.1806 -62.1806 -62.1748
   -35.6040 -35.5560 -35.5560 -35.5241 -35.5241 -35.4986 -35.4986 -35.4687
   -35.4687 -35.4687 -35.4687 -35.4462 -35.4462 -35.4462 -35.4462 -31.0017
   -31.0017 -30.9997 -30.9997 -30.9997 -30.9997 -30.9995 -30.9923 -30.9923
     5.7596   5.8955   5.9198   6.3324   6.3815   7.0111   7.0593   7.6164
     8.2825   8.4160   8.4165   8.4260   8.4717   8.5020   8.5496   8.7211
     8.7463   8.7803   8.7938   8.9099   8.9520   9.2048   9.2358   9.2599
     9.2782   9.3799   9.4518   9.4878   9.5684   9.8003   9.9202   9.9239
     9.9278   9.9757  10.1230  10.1336  10.1336  10.1399  10.1466  10.1645
    10.1726  10.1774  10.1774  10.1834  10.1944  10.1944  10.3452  10.3452
    10.3456  10.3456  10.5298  10.5728  10.5796  10.5796  10.5817  10.5817
    10.5822  10.5822  10.6027  10.6032  10.6111  10.6111  10.6134  10.6134
    10.6719  10.6971  10.6971  10.7142  10.7142  10.9639  10.9639  11.0473
    11.0473  11.0498  11.1018  11.1310  11.1492  11.2582  11.2792  11.2931
    11.3135  11.4160  11.4160  11.4297  11.4691  11.4691  11.6388  11.6928
    11.7172  11.7341  11.7436  11.7806  11.9034  11.9257  11.9257  12.0060
    12.0060  12.1054  12.1151  12.1356  12.1711  12.2490  12.3298  12.3298
    12.5464  12.5464  12.6099  12.6099  12.6605  12.6953  12.8028  12.8241
    12.9947  13.0021  13.0211  13.0773  13.8563  14.0259  15.0202  15.3998
    16.0853  16.8970  16.8970  16.9236  16.9236  16.9505  16.9505  16.9685
    16.9687  16.9837  17.1445  17.1683  17.1684  17.5770  17.5832  17.5959
    18.4385  19.5029  19.6634  20.0687  20.0687  20.4260  20.4260  20.4701
    20.4701  21.4212

[...]

          k =-0.5000-0.5000 0.0000 ( 13964 PWs)   bands (ev):

[...]

 ------ SPIN DOWN ----------

[...]

          k = 0.3750-0.5000-0.0484 ( 13940 PWs)   bands (ev):

[...]

          k =-0.5000-0.5000-0.0484 ( 13992 PWs)   bands (ev):

   -66.7878 -66.7878 -66.7618 -62.2087 -62.1459 -62.1459 -62.1288 -62.1288
   -35.5514 -35.5514 -35.5297 -35.5180 -35.5180 -35.5180 -35.5180 -35.4905
   -35.4905 -31.0438 -31.0438 -31.0252 -30.9794 -30.9794 -30.9794 -30.9794
   -30.9695 -30.9695 -30.9621 -30.9621 -30.9621 -30.9621 -30.9532 -30.9532
     8.1945   8.2018   8.2280   8.2510   8.3010   8.3772   8.6971   8.7013
     8.9264   8.9803   9.0538   9.0819   9.2741   9.2741   9.2830   9.2830
     9.3260   9.3436   9.3604   9.3604   9.3787   9.3876   9.3876   9.3918
     9.5626   9.5626   9.5693   9.5693   9.8697   9.8697   9.8730   9.8730
     9.9080   9.9700   9.9700   9.9705   9.9705   9.9776   9.9780   9.9780
    10.0348  10.2889  10.2889  10.2992  10.2992  10.5401  10.5853  10.6403
    10.6740  10.6793  10.7372  10.7372  10.9171  10.9171  11.1900  11.1930
    11.2019  11.2568  11.2677  11.2677  11.3169  11.3352  11.4275  11.4276
    11.4475  11.7095  11.7095  11.9579  11.9670  11.9670  11.9847  12.0016
    12.0027  12.0161  12.0161  12.0306  12.0306  12.0478  12.0571  12.0571
    12.0770  12.0992  12.0997  12.1108  12.1108  12.1281  12.1281  12.1786
    12.1843  12.2015  12.2382  12.2393  12.3061  12.3464  12.3872  13.4067
    13.4142  13.4263  13.4307  13.4338  13.9506  13.9506  13.9853  13.9853
    14.2472  14.2472  14.5533  14.5533  14.6514  14.6514  15.8886  15.8886
    15.9435  15.9435  16.0125  16.0125  16.6182  16.6514  16.6774  16.8049
    16.8270  16.9673  17.1055  17.1902  17.3110  17.3110  17.6590  17.6590
    17.8081  17.8173  17.8206  17.8998  17.8998  17.9402  18.0383  18.0910
    18.1072  18.1072  18.1233  18.1233  18.2675  18.3881  18.4851  18.7644
    18.7914  18.7914

     the Fermi energy is    15.2995 ev

!    total energy              =  -14693.99981643 Ry
     Harris-Foulkes estimate   =  -14693.99980865 Ry
     estimated scf accuracy    <       0.00000060 Ry

     total all-electron energy =   -626921.595538 Ry

     The total energy is the sum of the following terms:

     one-electron contribution =    -714.31513456 Ry
     hartree contribution      =     656.40974459 Ry
     xc contribution           =    -737.89414817 Ry
     ewald contribution        =   -2196.78933708 Ry
     Hubbard energy            =       0.44343002 Ry
     one-center paw contrib.   =  -11701.85437123 Ry

     total magnetization       =     8.88 Bohr mag/cell
     absolute magnetization    =    37.39 Bohr mag/cell

     convergence has been achieved in  23 iterations

     Writing output data file mnau2.save/

     General routines

     Parallel routines

     Hubbard U routines

   This run was terminated on:  22:13:31   6Apr2019

   JOB DONE.