     Program PWSCF v.6.3MaX starts on  6Apr2019 at 22:13:33

     R & G space division:  proc/nbgrp/npool/nimage =      32
     Waiting for input...
     Reading input from standard input

     Current dimensions of program PWSCF are:
     Max number of different atomic species (ntypx) = 10
     Max number of k-points (npk) =  40000
     Max angular momentum in pseudopotentials (lmaxx) =  3
               file Mn.pbe-spn-kjpaw_psl.0.3.1.UPF: wavefunction(s)  3P 3D renormalized
               file Mn.pbe-spn-kjpaw_psl.0.3.1.UPF: wavefunction(s)  3P 3D renormalized
               file Au.pbe-dn-kjpaw_psl.0.1.UPF: wavefunction(s)  6S 6P 5D renormalized

     bravais-lattice index     =            0
     lattice parameter (alat)  =       6.4153  a.u.
     unit-cell volume          =    2724.7774 (a.u.)^3
     number of atoms/cell      =           24
     number of atomic types    =            3
     number of electrons       =       296.00
     number of Kohn-Sham states=          178
     kinetic-energy cutoff     =      45.0000  Ry
     charge density cutoff     =     400.0000  Ry
     convergence threshold     =      1.0E-06
     mixing beta               =       0.1000
     number of iterations used =            8  plain     mixing
     Exchange-correlation      = SLA PW PBX PBC ( 1  4  3  4 0 0)

     celldm(1)=   6.415315  celldm(2)=   0.000000  celldm(3)=   0.000000
     celldm(4)=   0.000000  celldm(5)=   0.000000  celldm(6)=   0.000000

     crystal axes: (cart. coord. in units of alat)
               a(1) = (   1.000000   0.000000   0.000000 )
               a(2) = (   0.000000   1.000000   0.000000 )
               a(3) = (   0.000000   0.000000  10.319937 )

     reciprocal axes: (cart. coord. in units 2 pi/alat)
               b(1) = (  1.000000  0.000000  0.000000 )
               b(2) = (  0.000000  1.000000  0.000000 )
               b(3) = (  0.000000  0.000000  0.096900 )

     PseudoPot. # 1 for Mn read from file:
     ./pseudo/Mn.pbe-spn-kjpaw_psl.0.3.1.UPF
     MD5 check sum: 7b43a3fb0e93e198b8dd8488d8cf503e
     Pseudo is Projector augmented-wave + core cor, Zval = 15.0
     Generated using "atomic" code by A. Dal Corso v.5.0.99 svn rev. 10869
     Shape of augmentation charge: PSQ
     Using radial grid of 1187 points,  6 beta functions with:
                l(1) =   0
                l(2) =   0
                l(3) =   1
                l(4) =   1
                l(5) =   2
                l(6) =   2
     Q(r) pseudized with 0 coefficients

     PseudoPot. # 2 for Mn read from file:
     ./pseudo/Mn.pbe-spn-kjpaw_psl.0.3.1.UPF
     MD5 check sum: 7b43a3fb0e93e198b8dd8488d8cf503e
     Pseudo is Projector augmented-wave + core cor, Zval = 15.0
     Generated using "atomic" code by A. Dal Corso v.5.0.99 svn rev. 10869
     Shape of augmentation charge: PSQ
     Using radial grid of 1187 points,  6 beta functions with:
                l(1) =   0
                l(2) =   0
                l(3) =   1
                l(4) =   1
                l(5) =   2
                l(6) =   2
     Q(r) pseudized with 0 coefficients

     PseudoPot. # 3 for Au read from file:
     ./pseudo/Au.pbe-dn-kjpaw_psl.0.1.UPF
     MD5 check sum: be11e2e8e535ebe2b3ccfb4f88f554cb
     Pseudo is Projector augmented-wave + core cor, Zval = 11.0
     Generated using "atomic" code by A. Dal Corso v.5.0.2 svn rev. 9415
     Shape of augmentation charge: PSQ
     Using radial grid of 1279 points,  6 beta functions with:
                l(1) =   0
                l(2) =   0
                l(3) =   1
                l(4) =   1
                l(5) =   2
                l(6) =   2
     Q(r) pseudized with 0 coefficients

     atomic species   valence    mass     pseudopotential
        Mn1           15.00    54.93800     Mn( 1.00)
        Mn2           15.00    54.93800     Mn( 1.00)
        Au            11.00   196.96600     Au( 1.00)

     Starting magnetic structure
     atomic species   magnetization
        Mn1          0.800
        Mn2         -0.800
        Au           0.000

     Full LDA+U calculation (l_max = 2) with parameters (eV):
     U(  1) =   3.1200   J(  1) =   0.7000   B(  1) =   0.0803
     U(  2) =   3.1200   J(  2) =   0.7000   B(  2) =   0.0803

      8 Sym. Ops. (no inversion) found

   Cartesian axes

     site n.     atom                  positions (alat units)
         1           Mn1 tau(   1) = (   0.0000000   0.0000000   0.0000000  )
         2           Mn1 tau(   2) = (   0.5000000   0.5000000   1.2899921  )
         3           Mn2 tau(   3) = (   0.0000000   0.0000000   2.5799843  )
         4           Mn1 tau(   4) = (   0.5000000   0.5000000   3.8699764  )
         5           Mn2 tau(   5) = (   0.0000000   0.0000000   5.1599686  )
         6           Mn1 tau(   6) = (   0.5000000   0.5000000   6.4499607  )
         7           Mn2 tau(   7) = (   0.0000000   0.0000000   7.7399528  )
         8           Mn2 tau(   8) = (   0.5000000   0.5000000   9.0299450  )
         9           Au  tau(   9) = (   0.5000000   0.5000000   0.4127975  )
        10           Au  tau(  10) = (   0.0000000   0.0000000   0.8771947  )
        11           Au  tau(  11) = (   0.0000000   0.0000000   1.7027896  )
        12           Au  tau(  12) = (   0.5000000   0.5000000   2.1671868  )
        13           Au  tau(  13) = (   0.5000000   0.5000000   2.9927818  )
        14           Au  tau(  14) = (   0.0000000   0.0000000   3.4571789  )
        15           Au  tau(  15) = (   0.0000000   0.0000000   4.2827739  )
        16           Au  tau(  16) = (   0.5000000   0.5000000   4.7471711  )
        17           Au  tau(  17) = (   0.5000000   0.5000000   5.5727660  )
        18           Au  tau(  18) = (   0.0000000   0.0000000   6.0371632  )
        19           Au  tau(  19) = (   0.0000000   0.0000000   6.8627582  )
        20           Au  tau(  20) = (   0.5000000   0.5000000   7.3271553  )
        21           Au  tau(  21) = (   0.5000000   0.5000000   8.1527503  )
        22           Au  tau(  22) = (   0.0000000   0.0000000   8.6171475  )
        23           Au  tau(  23) = (   0.0000000   0.0000000   9.4427424  )
        24           Au  tau(  24) = (   0.5000000   0.5000000   9.9071396  )

     number of k points=    30 (tetrahedron method)
                       cart. coord. in units 2pi/alat
        k(    1) = (   0.0000000   0.0000000   0.0000000), wk =   0.0078125
        k(    2) = (   0.0000000   0.0000000  -0.0484499), wk =   0.0078125
        k(    3) = (   0.0000000   0.1250000   0.0000000), wk =   0.0312500
        k(    4) = (   0.0000000   0.1250000  -0.0484499), wk =   0.0312500
        k(    5) = (   0.0000000   0.2500000   0.0000000), wk =   0.0312500
        k(    6) = (   0.0000000   0.2500000  -0.0484499), wk =   0.0312500
        k(    7) = (   0.0000000   0.3750000   0.0000000), wk =   0.0312500
        k(    8) = (   0.0000000   0.3750000  -0.0484499), wk =   0.0312500
        k(    9) = (   0.0000000  -0.5000000   0.0000000), wk =   0.0156250
        k(   10) = (   0.0000000  -0.5000000  -0.0484499), wk =   0.0156250
        k(   11) = (   0.1250000   0.1250000   0.0000000), wk =   0.0312500
        k(   12) = (   0.1250000   0.1250000  -0.0484499), wk =   0.0312500
        k(   13) = (   0.1250000   0.2500000   0.0000000), wk =   0.0625000
        k(   14) = (   0.1250000   0.2500000  -0.0484499), wk =   0.0625000
        k(   15) = (   0.1250000   0.3750000   0.0000000), wk =   0.0625000
        k(   16) = (   0.1250000   0.3750000  -0.0484499), wk =   0.0625000
        k(   17) = (   0.1250000  -0.5000000   0.0000000), wk =   0.0312500
        k(   18) = (   0.1250000  -0.5000000  -0.0484499), wk =   0.0312500
        k(   19) = (   0.2500000   0.2500000   0.0000000), wk =   0.0312500
        k(   20) = (   0.2500000   0.2500000  -0.0484499), wk =   0.0312500
        k(   21) = (   0.2500000   0.3750000   0.0000000), wk =   0.0625000
        k(   22) = (   0.2500000   0.3750000  -0.0484499), wk =   0.0625000
        k(   23) = (   0.2500000  -0.5000000   0.0000000), wk =   0.0312500
        k(   24) = (   0.2500000  -0.5000000  -0.0484499), wk =   0.0312500
        k(   25) = (   0.3750000   0.3750000   0.0000000), wk =   0.0312500
        k(   26) = (   0.3750000   0.3750000  -0.0484499), wk =   0.0312500
        k(   27) = (   0.3750000  -0.5000000   0.0000000), wk =   0.0312500
        k(   28) = (   0.3750000  -0.5000000  -0.0484499), wk =   0.0312500
        k(   29) = (  -0.5000000  -0.5000000   0.0000000), wk =   0.0078125
        k(   30) = (  -0.5000000  -0.5000000  -0.0484499), wk =   0.0078125

     Check: negative/imaginary core charge=   -0.000006    0.000000

     Initial potential from superposition of free atoms

     starting charge  295.99426, renormalised to  296.00000
     Number of +U iterations with fixed ns =  0
     Starting occupations:
 --- enter write_ns ---
 LDA+U parameters:
U(  1) =   3.1200   J(  1) =   0.7000   B(  1) =   0.0803
U(  2) =   3.1200   J(  2) =   0.7000   B(  2) =   0.0803
atom    1   Tr[ns(na)] (up, down, total) =   5.00000  0.00000  5.00000
   spin  1
    eigenvalues:
  1.000  1.000  1.000  1.000  1.000
    eigenvectors:
  1.000  0.000  0.000  0.000  0.000
  0.000  1.000  0.000  0.000  0.000
  0.000  0.000  1.000  0.000  0.000
  0.000  0.000  0.000  1.000  0.000
  0.000  0.000  0.000  0.000  1.000
    occupations:
  1.000  0.000  0.000  0.000  0.000
  0.000  1.000  0.000  0.000  0.000
  0.000  0.000  1.000  0.000  0.000
  0.000  0.000  0.000  1.000  0.000
  0.000  0.000  0.000  0.000  1.000
   spin  2
    eigenvalues:
  0.000  0.000  0.000  0.000  0.000
    eigenvectors:
  1.000  0.000  0.000  0.000  0.000
  0.000  1.000  0.000  0.000  0.000
  0.000  0.000  1.000  0.000  0.000
  0.000  0.000  0.000  1.000  0.000
  0.000  0.000  0.000  0.000  1.000
    occupations:
  0.000  0.000  0.000  0.000  0.000
  0.000  0.000  0.000  0.000  0.000
  0.000  0.000  0.000  0.000  0.000
  0.000  0.000  0.000  0.000  0.000
  0.000  0.000  0.000  0.000  0.000
atomic mag. moment =     5.000000
atom    2   Tr[ns(na)] (up, down, total) =   5.00000  0.00000  5.00000
   spin  1
    eigenvalues:
  1.000  1.000  1.000  1.000  1.000
    eigenvectors:
  1.000  0.000  0.000  0.000  0.000
  0.000  1.000  0.000  0.000  0.000
  0.000  0.000  1.000  0.000  0.000
  0.000  0.000  0.000  1.000  0.000
  0.000  0.000  0.000  0.000  1.000
    occupations:
  1.000  0.000  0.000  0.000  0.000
  0.000  1.000  0.000  0.000  0.000
  0.000  0.000  1.000  0.000  0.000
  0.000  0.000  0.000  1.000  0.000
  0.000  0.000  0.000  0.000  1.000
   spin  2
    eigenvalues:
  0.000  0.000  0.000  0.000  0.000
    eigenvectors:
  1.000  0.000  0.000  0.000  0.000
  0.000  1.000  0.000  0.000  0.000
  0.000  0.000  1.000  0.000  0.000
  0.000  0.000  0.000  1.000  0.000
  0.000  0.000  0.000  0.000  1.000
    occupations:
  0.000  0.000  0.000  0.000  0.000
  0.000  0.000  0.000  0.000  0.000
  0.000  0.000  0.000  0.000  0.000
  0.000  0.000  0.000  0.000  0.000
  0.000  0.000  0.000  0.000  0.000
atomic mag. moment =     5.000000
atom    3   Tr[ns(na)] (up, down, total) =   0.00000  5.00000  5.00000
   spin  1
    eigenvalues:
[...]
   spin  1
    eigenvalues:
  0.053  0.075  0.083  0.083  0.120
    eigenvectors:
  0.000  1.000  0.000  0.000  0.000
  0.000  0.000  0.159  0.841  0.000
  0.000  0.000  0.841  0.159  0.000
  1.000  0.000  0.000  0.000  0.000
  0.000  0.000  0.000  0.000  1.000
    occupations:
  0.075 -0.000 -0.000  0.000  0.000
 -0.000  0.083 -0.000  0.000  0.000
 -0.000 -0.000  0.083  0.000  0.000
  0.000  0.000  0.000  0.053 -0.000
  0.000  0.000  0.000 -0.000  0.120
   spin  2
    eigenvalues:
  1.003  1.003  1.003  1.004  1.004
    eigenvectors:
  0.000  0.000  0.000  1.000  0.000
  0.000  0.137  0.863  0.000  0.000
  0.000  0.863  0.137  0.000  0.000
  0.000  0.000  0.000  0.000  1.000
  1.000  0.000  0.000  0.000  0.000
    occupations:
  1.004 -0.000 -0.000  0.000  0.000
 -0.000  1.003 -0.000  0.000  0.000
 -0.000 -0.000  1.003  0.000  0.000
  0.000  0.000  0.000  1.004 -0.000
  0.000  0.000  0.000 -0.000  1.003
atomic mag. moment =    -4.604567
N of occupied +U levels =   43.426126
 --- exit write_ns ---

     total energy              =  -14687.28059681 Ry
     Harris-Foulkes estimate   =  -14685.81992669 Ry
     estimated scf accuracy    <      11.56906155 Ry

     total magnetization       =     0.00 Bohr mag/cell
     absolute magnetization    =    41.59 Bohr mag/cell

     iteration #  2     ecut=    45.00 Ry     beta= 0.10
     Davidson diagonalization with overlap
     ethr =  3.91E-03,  avg # of iterations =  1.0

[...]

     total energy              =  -14693.99938814 Ry
     Harris-Foulkes estimate   =  -14693.99938747 Ry
     estimated scf accuracy    <       0.00000221 Ry

[...]

     iteration # 29     ecut=    45.00 Ry     beta= 0.10
     Davidson diagonalization with overlap
     ethr =  4.11E-10,  avg # of iterations =  2.0

     Magnetic moment per site:
     atom:    1    charge:   13.5486    magn:    4.2318    constr:    0.0000
     atom:    2    charge:   13.5463    magn:    4.2460    constr:    0.0000
     atom:    3    charge:   13.5451    magn:   -4.2514    constr:    0.0000
     atom:    4    charge:   13.5413    magn:    4.2760    constr:    0.0000
     atom:    5    charge:   13.5411    magn:   -4.2760    constr:    0.0000
     atom:    6    charge:   13.5451    magn:    4.2515    constr:    0.0000
     atom:    7    charge:   13.5462    magn:   -4.2461    constr:    0.0000
     atom:    8    charge:   13.5488    magn:   -4.2319    constr:    0.0000
     atom:    9    charge:    9.1231    magn:    0.0403    constr:    0.0000
     atom:   10    charge:    9.1233    magn:    0.0404    constr:    0.0000
     atom:   11    charge:    9.1237    magn:    0.0463    constr:    0.0000
     atom:   12    charge:    9.1231    magn:   -0.0403    constr:    0.0000
     atom:   13    charge:    9.1246    magn:   -0.0389    constr:    0.0000
     atom:   14    charge:    9.1252    magn:    0.0394    constr:    0.0000
     atom:   15    charge:    9.1259    magn:    0.0360    constr:    0.0000
     atom:   16    charge:    9.1257    magn:   -0.0360    constr:    0.0000
     atom:   17    charge:    9.1250    magn:   -0.0394    constr:    0.0000
     atom:   18    charge:    9.1246    magn:    0.0389    constr:    0.0000
     atom:   19    charge:    9.1232    magn:    0.0403    constr:    0.0000
     atom:   20    charge:    9.1235    magn:   -0.0463    constr:    0.0000
     atom:   21    charge:    9.1231    magn:   -0.0404    constr:    0.0000
     atom:   22    charge:    9.1233    magn:   -0.0403    constr:    0.0000
     atom:   23    charge:    9.1225    magn:   -0.0440    constr:    0.0000
     atom:   24    charge:    9.1224    magn:    0.0440    constr:    0.0000

     End of self-consistent calculation
 --- enter write_ns ---
 LDA+U parameters:
U(  1) =   3.1200   J(  1) =   0.7000   B(  1) =   0.0803
U(  2) =   3.1200   J(  2) =   0.7000   B(  2) =   0.0803
atom    1   Tr[ns(na)] (up, down, total) =   4.97137  0.74120  5.71258
   spin  1
    eigenvalues:
  0.985  0.994  0.994  0.996  1.002
    eigenvectors:
  0.000  0.000  0.000  1.000  0.000
  0.000  0.107  0.893  0.000  0.000
  0.000  0.893  0.107  0.000  0.000
  0.000  0.000  0.000  0.000  1.000
  1.000  0.000  0.000  0.000  0.000
    occupations:
  0.996 -0.000 -0.000  0.000  0.000
 -0.000  0.994 -0.000  0.000  0.000
 -0.000 -0.000  0.994  0.000  0.000
  0.000  0.000  0.000  1.002 -0.000
  0.000  0.000  0.000 -0.000  0.985
   spin  2
    eigenvalues:
  0.064  0.132  0.144  0.144  0.256
    eigenvectors:
  0.000  1.000  0.000  0.000  0.000
  0.000  0.000  0.104  0.896  0.000
  0.000  0.000  0.896  0.104  0.000
  1.000  0.000  0.000  0.000  0.000
  0.000  0.000  0.000  0.000  1.000
    occupations:
  0.132 -0.000 -0.000  0.000  0.000
 -0.000  0.144 -0.000  0.000  0.000
 -0.000 -0.000  0.144  0.000  0.000
  0.000  0.000  0.000  0.064 -0.000
  0.000  0.000  0.000 -0.000  0.256
atomic mag. moment =     4.230169
atom    2   Tr[ns(na)] (up, down, total) =   4.97329  0.72881  5.70210
   spin  1
    eigenvalues:
  0.985  0.994  0.994  0.997  1.002
    eigenvectors:
  0.000  0.000  0.000  1.000  0.000
  0.000  0.121  0.879  0.000  0.000
  0.000  0.879  0.121  0.000  0.000
  0.000  0.000  0.000  0.000  1.000
  1.000  0.000  0.000  0.000  0.000
    occupations:
  0.997 -0.000 -0.000  0.000  0.000
 -0.000  0.994 -0.000  0.000  0.000
 -0.000 -0.000  0.994  0.000  0.000
  0.000  0.000  0.000  1.002 -0.000
  0.000  0.000  0.000 -0.000  0.985
   spin  2
    eigenvalues:
  0.066  0.130  0.142  0.142  0.250
    eigenvectors:
  0.000  1.000  0.000  0.000  0.000
  0.000  0.000  0.109  0.891  0.000
  0.000  0.000  0.891  0.109  0.000
  1.000  0.000  0.000  0.000  0.000
  0.000  0.000  0.000  0.000  1.000
    occupations:
  0.130 -0.000 -0.000  0.000  0.000
 -0.000  0.142 -0.000  0.000  0.000
 -0.000 -0.000  0.142  0.000  0.000
  0.000  0.000  0.000  0.066 -0.000
  0.000  0.000  0.000 -0.000  0.250
atomic mag. moment =     4.244486
atom    3   Tr[ns(na)] (up, down, total) =   0.72497  4.97157  5.69654
   spin  1
    eigenvalues:
  0.066  0.124  0.145  0.145  0.245
    eigenvectors:
  0.000  1.000  0.000  0.000  0.000
  0.000  0.000  0.102  0.898  0.000
  0.000  0.000  0.898  0.102  0.000
  1.000  0.000  0.000  0.000  0.000
  0.000  0.000  0.000  0.000  1.000
    occupations:
  0.124 -0.000 -0.000  0.000  0.000
 -0.000  0.145 -0.000  0.000  0.000
 -0.000 -0.000  0.145  0.000  0.000
  0.000  0.000  0.000  0.066 -0.000
  0.000  0.000  0.000 -0.000  0.245
   spin  2
    eigenvalues:
  0.985  0.994  0.994  0.997  1.003
    eigenvectors:
  0.000  0.000  0.000  1.000  0.000
  0.000  0.116  0.884  0.000  0.000
  0.000  0.884  0.116  0.000  0.000
  0.000  0.000  0.000  0.000  1.000
  1.000  0.000  0.000  0.000  0.000
    occupations:
  0.997 -0.000 -0.000  0.000  0.000
 -0.000  0.994 -0.000  0.000  0.000
 -0.000 -0.000  0.994  0.000  0.000
  0.000  0.000  0.000  1.003 -0.000
  0.000  0.000  0.000 -0.000  0.985
atomic mag. moment =    -4.246603
atom    4   Tr[ns(na)] (up, down, total) =   4.97448  0.70381  5.67829
   spin  1
    eigenvalues:
  0.985  0.994  0.994  0.998  1.003
    eigenvectors:
  0.000  0.000  0.000  1.000  0.000
  0.000  0.124  0.876  0.000  0.000
  0.000  0.876  0.124  0.000  0.000
  0.000  0.000  0.000  0.000  1.000
  1.000  0.000  0.000  0.000  0.000
    occupations:
  0.998 -0.000 -0.000  0.000  0.000
 -0.000  0.994 -0.000  0.000  0.000
 -0.000 -0.000  0.994  0.000  0.000
  0.000  0.000  0.000  1.003 -0.000
  0.000  0.000  0.000 -0.000  0.985
   spin  2
    eigenvalues:
  0.067  0.106  0.147  0.147  0.238
    eigenvectors:
  0.000  1.000  0.000  0.000  0.000
  0.000  0.000  0.150  0.850  0.000
  0.000  0.000  0.850  0.150  0.000
  1.000  0.000  0.000  0.000  0.000
  0.000  0.000  0.000  0.000  1.000
    occupations:
  0.106 -0.000 -0.000  0.000  0.000
 -0.000  0.147 -0.000  0.000  0.000
 -0.000 -0.000  0.147  0.000  0.000
  0.000  0.000  0.000  0.067 -0.000
  0.000  0.000  0.000 -0.000  0.238
atomic mag. moment =     4.270664
atom    5   Tr[ns(na)] (up, down, total) =   0.70376  4.97447  5.67824
   spin  1
    eigenvalues:
  0.067  0.106  0.147  0.147  0.238
    eigenvectors:
  0.000  1.000  0.000  0.000  0.000
  0.000  0.000  0.150  0.850  0.000
  0.000  0.000  0.850  0.150  0.000
  1.000  0.000  0.000  0.000  0.000
  0.000  0.000  0.000  0.000  1.000
    occupations:
  0.106 -0.000 -0.000  0.000  0.000
 -0.000  0.147 -0.000  0.000  0.000
 -0.000 -0.000  0.147  0.000  0.000
  0.000  0.000  0.000  0.067 -0.000
  0.000  0.000  0.000 -0.000  0.238
   spin  2
    eigenvalues:
  0.985  0.994  0.994  0.998  1.003
    eigenvectors:
  0.000  0.000  0.000  1.000  0.000
  0.000  0.118  0.882  0.000  0.000
  0.000  0.882  0.118  0.000  0.000
  0.000  0.000  0.000  0.000  1.000
  1.000  0.000  0.000  0.000  0.000
    occupations:
  0.998 -0.000 -0.000  0.000  0.000
 -0.000  0.994 -0.000  0.000  0.000
 -0.000 -0.000  0.994  0.000  0.000
  0.000  0.000  0.000  1.003 -0.000
  0.000  0.000  0.000 -0.000  0.985
atomic mag. moment =    -4.270706
atom    6   Tr[ns(na)] (up, down, total) =   4.97156  0.72487  5.69644
   spin  1
    eigenvalues:
  0.985  0.994  0.994  0.997  1.003
    eigenvectors:
  0.000  0.000  0.000  1.000  0.000
  0.000  0.127  0.873  0.000  0.000
  0.000  0.873  0.127  0.000  0.000
  0.000  0.000  0.000  0.000  1.000
  1.000  0.000  0.000  0.000  0.000
    occupations:
  0.997 -0.000 -0.000  0.000  0.000
 -0.000  0.994 -0.000  0.000  0.000
 -0.000 -0.000  0.994  0.000  0.000
  0.000  0.000  0.000  1.003 -0.000
  0.000  0.000  0.000 -0.000  0.985
   spin  2
    eigenvalues:
  0.066  0.124  0.145  0.145  0.245
    eigenvectors:
  0.000  1.000  0.000  0.000  0.000
  0.000  0.000  0.137  0.863  0.000
  0.000  0.000  0.863  0.137  0.000
  1.000  0.000  0.000  0.000  0.000
  0.000  0.000  0.000  0.000  1.000
    occupations:
  0.124 -0.000 -0.000  0.000  0.000
 -0.000  0.145 -0.000  0.000  0.000
 -0.000 -0.000  0.145  0.000  0.000
  0.000  0.000  0.000  0.066 -0.000
  0.000  0.000  0.000 -0.000  0.245
atomic mag. moment =     4.246686
atom    7   Tr[ns(na)] (up, down, total) =   0.72873  4.97331  5.70203
   spin  1
    eigenvalues:
  0.066  0.130  0.142  0.142  0.249
    eigenvectors:
  0.000  1.000  0.000  0.000  0.000
  0.000  0.000  0.117  0.883  0.000
  0.000  0.000  0.883  0.117  0.000
  1.000  0.000  0.000  0.000  0.000
  0.000  0.000  0.000  0.000  1.000
    occupations:
  0.130 -0.000 -0.000  0.000  0.000
 -0.000  0.142 -0.000  0.000  0.000
 -0.000 -0.000  0.142  0.000  0.000
  0.000  0.000  0.000  0.066 -0.000
  0.000  0.000  0.000 -0.000  0.249
   spin  2
    eigenvalues:
  0.985  0.994  0.994  0.997  1.002
    eigenvectors:
  0.000  0.000  0.000  1.000  0.000
  0.000  0.160  0.840  0.000  0.000
  0.000  0.840  0.160  0.000  0.000
  0.000  0.000  0.000  0.000  1.000
  1.000  0.000  0.000  0.000  0.000
    occupations:
  0.997 -0.000 -0.000  0.000  0.000
 -0.000  0.994 -0.000  0.000  0.000
 -0.000 -0.000  0.994  0.000  0.000
  0.000  0.000  0.000  1.002 -0.000
  0.000  0.000  0.000 -0.000  0.985
atomic mag. moment =    -4.244581
atom    8   Tr[ns(na)] (up, down, total) =   0.74118  4.97138  5.71257
   spin  1
    eigenvalues:
  0.064  0.132  0.144  0.144  0.256
    eigenvectors:
  0.000  1.000  0.000  0.000  0.000
  0.000  0.000  0.129  0.871  0.000
  0.000  0.000  0.871  0.129  0.000
  1.000  0.000  0.000  0.000  0.000
  0.000  0.000  0.000  0.000  1.000
    occupations:
  0.132 -0.000 -0.000  0.000  0.000
 -0.000  0.144 -0.000  0.000  0.000
 -0.000 -0.000  0.144  0.000  0.000
  0.000  0.000  0.000  0.064 -0.000
  0.000  0.000  0.000 -0.000  0.256
   spin  2
    eigenvalues:
  0.985  0.994  0.994  0.996  1.002
    eigenvectors:
  0.000  0.000  0.000  1.000  0.000
  0.000  0.143  0.857  0.000  0.000
  0.000  0.857  0.143  0.000  0.000
  0.000  0.000  0.000  0.000  1.000
  1.000  0.000  0.000  0.000  0.000
    occupations:
  0.996 -0.000 -0.000  0.000  0.000
 -0.000  0.994 -0.000  0.000  0.000
 -0.000 -0.000  0.994  0.000  0.000
  0.000  0.000  0.000  1.002 -0.000
  0.000  0.000  0.000 -0.000  0.985
atomic mag. moment =    -4.230201
N of occupied +U levels =   45.578774
 --- exit write_ns ---

 ------ SPIN UP ------------

          k = 0.0000 0.0000 0.0000 ( 13925 PWs)   bands (ev):

   -66.8507 -66.7854 -66.7291 -66.6880 -62.2232 -62.1837 -62.1288 -62.1022
   -35.6181 -35.5662 -35.5662 -35.5492 -35.5038 -35.5038 -35.4976 -35.4589
   -35.4466 -35.4466 -35.4049 -35.4049 -31.0428 -31.0424 -31.0424 -31.0058
   -31.0023 -31.0023 -30.9548 -30.9472 -30.9472 -30.9294 -30.9202 -30.9202
     5.7773   5.9031   5.9670   6.3377   6.4391   7.0272   7.0858   7.6214
     8.3526   8.4323   8.4476   8.4868   8.5191   8.5200   8.5986   8.7490
     8.8080   8.8480   8.9645   9.0793   9.1520   9.2367   9.2665   9.2927
     9.3080   9.3810   9.4638   9.5133   9.8723   9.9332   9.9375   9.9636
     9.9963  10.0718  10.1285  10.1285  10.1357  10.1435  10.1858  10.1858
    10.1920  10.1986  10.1986  10.2048  10.3111  10.3470  10.3470  10.3554
    10.3554  10.5212  10.5688  10.5688  10.5705  10.5773  10.6017  10.6017
    10.6039  10.6039  10.6138  10.6167  10.6167  10.6247  10.6247  10.6772
    10.7268  10.7268  10.9460  10.9460  10.9673  11.0525  11.0525  11.1058
    11.1092  11.1654  11.2614  11.2670  11.3052  11.3624  11.3931  11.3931
    11.4130  11.4581  11.4581  11.4656  11.6771  11.7539  11.7750  11.7825
    11.7825  11.8819  11.9274  12.0030  12.0030  12.0518  12.1236  12.1433
    12.1836  12.2552  12.2642  12.2642  12.3827  12.3827  12.5931  12.5931
    12.6977  12.7861  12.8261  12.8273  12.9760  13.0142  13.0730  13.5736
    14.0188  14.8378  15.2366  15.9152  16.8309  16.8309  16.8673  16.8673
    16.9315  16.9319  16.9319  16.9649  16.9962  17.0601  17.1360  17.1360
    17.1507  17.1579  17.1678  17.2209  17.5489  17.5869  17.6113  17.6268
    18.6127  19.5783  19.7967  20.1043  20.1043  20.4563  20.4563  20.5466
    20.5466  21.4653

[...]

          k =-0.5000-0.5000 0.0000 ( 13964 PWs)   bands (ev):

[...]

 ------ SPIN DOWN ----------

[...]

          k = 0.3750-0.5000-0.0484 ( 13940 PWs)   bands (ev):

[...]

          k =-0.5000-0.5000-0.0484 ( 13992 PWs)   bands (ev):

   -66.8490 -66.7844 -66.7282 -66.6870 -62.2221 -62.1820 -62.1275 -62.1008
   -35.6160 -35.5765 -35.5765 -35.5479 -35.5148 -35.5148 -35.4964 -35.4577
   -35.4577 -35.4575 -35.4159 -35.4159 -31.0562 -31.0562 -31.0406 -31.0155
   -31.0155 -31.0030 -30.9608 -30.9608 -30.9523 -30.9337 -30.9337 -30.9269
     8.1126   8.1176   8.1819   8.1916   8.2692   8.3608   8.5463   8.5808
     8.8561   8.9526   8.9902   9.0590   9.2558   9.2558   9.2861   9.2861
     9.2960   9.3483   9.3559   9.3559   9.3559   9.3626   9.3713   9.3713
     9.5490   9.5490   9.5560   9.5560   9.8567   9.8567   9.8605   9.8642
     9.8642   9.9307   9.9307   9.9454   9.9454   9.9613   9.9669   9.9669
     9.9827  10.0510  10.0886  10.0886  10.2845  10.2845  10.3141  10.3141
    10.5183  10.6063  10.6499  10.6649  10.7613  10.7613  10.9427  10.9427
    11.1497  11.1526  11.1701  11.1897  11.2160  11.3158  11.3784  11.4146
    11.4146  11.4285  11.4419  11.4505  11.4843  11.5195  11.7009  11.7009
    11.9481  11.9586  11.9734  11.9842  11.9847  11.9976  12.0111  12.0238
    12.0383  12.0490  12.0658  12.0773  12.0776  12.0884  12.1059  12.1074
    12.1074  12.1168  12.1701  12.1877  12.2214  12.2374  12.2725  12.3359
    12.3592  12.3592  12.3614  12.3956  13.3914  13.4043  13.4296  13.4343
    13.9251  13.9251  13.9838  13.9838  14.2718  14.2718  14.5894  14.5894
    15.2579  15.2579  15.8696  15.8696  15.9936  15.9936  16.5922  16.6458
    16.6758  16.6758  16.7178  16.7204  16.8369  16.9972  17.0005  17.1940
    17.5446  17.5446  17.7754  17.7809  17.7809  17.8063  17.8232  17.9060
    17.9613  18.0284  18.0701  18.1227  18.1597  18.2676  18.2922  18.5163
    18.6544  18.6544

     the Fermi energy is    15.2954 ev

!    total energy              =  -14693.99939168 Ry
     Harris-Foulkes estimate   =  -14693.99938840 Ry
     estimated scf accuracy    <       0.00000099 Ry

     total all-electron energy =   -626921.595114 Ry

     The total energy is the sum of the following terms:

     one-electron contribution =    -714.33761119 Ry
     hartree contribution      =     656.42912978 Ry
     xc contribution           =    -737.89303612 Ry
     ewald contribution        =   -2196.78933708 Ry
     Hubbard energy            =       0.44430024 Ry
     one-center paw contrib.   =  -11701.85283731 Ry

     total magnetization       =    -0.00 Bohr mag/cell
     absolute magnetization    =    37.38 Bohr mag/cell

     convergence has been achieved in  29 iterations

     Writing output data file mnau2.save/

     General routines

     Parallel routines

     Hubbard U routines

   This run was terminated on:  22:29:59   6Apr2019

   JOB DONE.