     Program PWSCF v.6.3MaX starts on  6Apr2019 at 22:30: 1

     R & G space division:  proc/nbgrp/npool/nimage =      32
     Waiting for input...
     Reading input from standard input

     Current dimensions of program PWSCF are:
     Max number of different atomic species (ntypx) = 10
     Max number of k-points (npk) =  40000
     Max angular momentum in pseudopotentials (lmaxx) =  3
               file Mn.pbe-spn-kjpaw_psl.0.3.1.UPF: wavefunction(s)  3P 3D renormalized
               file Mn.pbe-spn-kjpaw_psl.0.3.1.UPF: wavefunction(s)  3P 3D renormalized
               file Au.pbe-dn-kjpaw_psl.0.1.UPF: wavefunction(s)  6S 6P 5D renormalized

     bravais-lattice index     =            0
     lattice parameter (alat)  =       6.4153  a.u.
     unit-cell volume          =    2724.7774 (a.u.)^3
     number of atoms/cell      =           24
     number of atomic types    =            3
     number of electrons       =       296.00
     number of Kohn-Sham states=          178
     kinetic-energy cutoff     =      45.0000  Ry
     charge density cutoff     =     400.0000  Ry
     convergence threshold     =      1.0E-06
     mixing beta               =       0.1000
     number of iterations used =            8  plain     mixing
     Exchange-correlation      = SLA PW PBX PBC ( 1  4  3  4 0 0)

     celldm(1)=   6.415315  celldm(2)=   0.000000  celldm(3)=   0.000000
     celldm(4)=   0.000000  celldm(5)=   0.000000  celldm(6)=   0.000000

     crystal axes: (cart. coord. in units of alat)
               a(1) = (   1.000000   0.000000   0.000000 )
               a(2) = (   0.000000   1.000000   0.000000 )
               a(3) = (   0.000000   0.000000  10.319937 )

     reciprocal axes: (cart. coord. in units 2 pi/alat)
               b(1) = (  1.000000  0.000000  0.000000 )
               b(2) = (  0.000000  1.000000  0.000000 )
               b(3) = (  0.000000  0.000000  0.096900 )

     PseudoPot. # 1 for Mn read from file:
     ./pseudo/Mn.pbe-spn-kjpaw_psl.0.3.1.UPF
     MD5 check sum: 7b43a3fb0e93e198b8dd8488d8cf503e
     Pseudo is Projector augmented-wave + core cor, Zval = 15.0
     Generated using "atomic" code by A. Dal Corso v.5.0.99 svn rev. 10869
     Shape of augmentation charge: PSQ
     Using radial grid of 1187 points,  6 beta functions with:
                l(1) =   0
                l(2) =   0
                l(3) =   1
                l(4) =   1
                l(5) =   2
                l(6) =   2
     Q(r) pseudized with 0 coefficients

     PseudoPot. # 2 for Mn read from file:
     ./pseudo/Mn.pbe-spn-kjpaw_psl.0.3.1.UPF
     MD5 check sum: 7b43a3fb0e93e198b8dd8488d8cf503e
     Pseudo is Projector augmented-wave + core cor, Zval = 15.0
     Generated using "atomic" code by A. Dal Corso v.5.0.99 svn rev. 10869
     Shape of augmentation charge: PSQ
     Using radial grid of 1187 points,  6 beta functions with:
                l(1) =   0
                l(2) =   0
                l(3) =   1
                l(4) =   1
                l(5) =   2
                l(6) =   2
     Q(r) pseudized with 0 coefficients

     PseudoPot. # 3 for Au read from file:
     ./pseudo/Au.pbe-dn-kjpaw_psl.0.1.UPF
     MD5 check sum: be11e2e8e535ebe2b3ccfb4f88f554cb
     Pseudo is Projector augmented-wave + core cor, Zval = 11.0
     Generated using "atomic" code by A. Dal Corso v.5.0.2 svn rev. 9415
     Shape of augmentation charge: PSQ
     Using radial grid of 1279 points,  6 beta functions with:
                l(1) =   0
                l(2) =   0
                l(3) =   1
                l(4) =   1
                l(5) =   2
                l(6) =   2
     Q(r) pseudized with 0 coefficients

     atomic species   valence    mass     pseudopotential
        Mn1           15.00    54.93800     Mn( 1.00)
        Mn2           15.00    54.93800     Mn( 1.00)
        Au            11.00   196.96600     Au( 1.00)

     Starting magnetic structure
     atomic species   magnetization
        Mn1          0.800
        Mn2         -0.800
        Au           0.000

     Full LDA+U calculation (l_max = 2) with parameters (eV):
     U(  1) =   3.1200   J(  1) =   0.7000   B(  1) =   0.0803
     U(  2) =   3.1200   J(  2) =   0.7000   B(  2) =   0.0803

      8 Sym. Ops. (no inversion) found
          (note:  8 additional sym.ops. were found but ignored
           their fractional translations are incommensurate with FFT grid)

   Cartesian axes

     site n.     atom                  positions (alat units)
         1           Mn1 tau(   1) = (   0.0000000   0.0000000   0.0000000  )
         2           Mn1 tau(   2) = (   0.5000000   0.5000000   1.2899921  )
         3           Mn2 tau(   3) = (   0.0000000   0.0000000   2.5799843  )
         4           Mn1 tau(   4) = (   0.5000000   0.5000000   3.8699764  )
         5           Mn2 tau(   5) = (   0.0000000   0.0000000   5.1599686  )
         6           Mn2 tau(   6) = (   0.5000000   0.5000000   6.4499607  )
         7           Mn1 tau(   7) = (   0.0000000   0.0000000   7.7399528  )
         8           Mn2 tau(   8) = (   0.5000000   0.5000000   9.0299450  )
         9           Au  tau(   9) = (   0.5000000   0.5000000   0.4127975  )
        10           Au  tau(  10) = (   0.0000000   0.0000000   0.8771947  )
        11           Au  tau(  11) = (   0.0000000   0.0000000   1.7027896  )
        12           Au  tau(  12) = (   0.5000000   0.5000000   2.1671868  )
        13           Au  tau(  13) = (   0.5000000   0.5000000   2.9927818  )
        14           Au  tau(  14) = (   0.0000000   0.0000000   3.4571789  )
        15           Au  tau(  15) = (   0.0000000   0.0000000   4.2827739  )
        16           Au  tau(  16) = (   0.5000000   0.5000000   4.7471711  )
        17           Au  tau(  17) = (   0.5000000   0.5000000   5.5727660  )
        18           Au  tau(  18) = (   0.0000000   0.0000000   6.0371632  )
        19           Au  tau(  19) = (   0.0000000   0.0000000   6.8627582  )
        20           Au  tau(  20) = (   0.5000000   0.5000000   7.3271553  )
        21           Au  tau(  21) = (   0.5000000   0.5000000   8.1527503  )
        22           Au  tau(  22) = (   0.0000000   0.0000000   8.6171475  )
        23           Au  tau(  23) = (   0.0000000   0.0000000   9.4427424  )
        24           Au  tau(  24) = (   0.5000000   0.5000000   9.9071396  )

     number of k points=    30 (tetrahedron method)
                       cart. coord. in units 2pi/alat
        k(    1) = (   0.0000000   0.0000000   0.0000000), wk =   0.0078125
        k(    2) = (   0.0000000   0.0000000  -0.0484499), wk =   0.0078125
        k(    3) = (   0.0000000   0.1250000   0.0000000), wk =   0.0312500
        k(    4) = (   0.0000000   0.1250000  -0.0484499), wk =   0.0312500
        k(    5) = (   0.0000000   0.2500000   0.0000000), wk =   0.0312500
        k(    6) = (   0.0000000   0.2500000  -0.0484499), wk =   0.0312500
        k(    7) = (   0.0000000   0.3750000   0.0000000), wk =   0.0312500
        k(    8) = (   0.0000000   0.3750000  -0.0484499), wk =   0.0312500
        k(    9) = (   0.0000000  -0.5000000   0.0000000), wk =   0.0156250
        k(   10) = (   0.0000000  -0.5000000  -0.0484499), wk =   0.0156250
        k(   11) = (   0.1250000   0.1250000   0.0000000), wk =   0.0312500
        k(   12) = (   0.1250000   0.1250000  -0.0484499), wk =   0.0312500
        k(   13) = (   0.1250000   0.2500000   0.0000000), wk =   0.0625000
        k(   14) = (   0.1250000   0.2500000  -0.0484499), wk =   0.0625000
        k(   15) = (   0.1250000   0.3750000   0.0000000), wk =   0.0625000
        k(   16) = (   0.1250000   0.3750000  -0.0484499), wk =   0.0625000
        k(   17) = (   0.1250000  -0.5000000   0.0000000), wk =   0.0312500
        k(   18) = (   0.1250000  -0.5000000  -0.0484499), wk =   0.0312500
        k(   19) = (   0.2500000   0.2500000   0.0000000), wk =   0.0312500
        k(   20) = (   0.2500000   0.2500000  -0.0484499), wk =   0.0312500
        k(   21) = (   0.2500000   0.3750000   0.0000000), wk =   0.0625000
        k(   22) = (   0.2500000   0.3750000  -0.0484499), wk =   0.0625000
        k(   23) = (   0.2500000  -0.5000000   0.0000000), wk =   0.0312500
        k(   24) = (   0.2500000  -0.5000000  -0.0484499), wk =   0.0312500
        k(   25) = (   0.3750000   0.3750000   0.0000000), wk =   0.0312500
        k(   26) = (   0.3750000   0.3750000  -0.0484499), wk =   0.0312500
        k(   27) = (   0.3750000  -0.5000000   0.0000000), wk =   0.0312500
        k(   28) = (   0.3750000  -0.5000000  -0.0484499), wk =   0.0312500
        k(   29) = (  -0.5000000  -0.5000000   0.0000000), wk =   0.0078125
        k(   30) = (  -0.5000000  -0.5000000  -0.0484499), wk =   0.0078125

     Check: negative/imaginary core charge=   -0.000006    0.000000

     Initial potential from superposition of free atoms

     starting charge  295.99426, renormalised to  296.00000
     Number of +U iterations with fixed ns =  0
     Starting occupations:
 --- enter write_ns ---
 LDA+U parameters:
U(  1) =   3.1200   J(  1) =   0.7000   B(  1) =   0.0803
U(  2) =   3.1200   J(  2) =   0.7000   B(  2) =   0.0803
atom    1   Tr[ns(na)] (up, down, total) =   5.00000  0.00000  5.00000
   spin  1
    eigenvalues:
  1.000  1.000  1.000  1.000  1.000
    eigenvectors:
  1.000  0.000  0.000  0.000  0.000
  0.000  1.000  0.000  0.000  0.000
  0.000  0.000  1.000  0.000  0.000
  0.000  0.000  0.000  1.000  0.000
  0.000  0.000  0.000  0.000  1.000
    occupations:
  1.000  0.000  0.000  0.000  0.000
  0.000  1.000  0.000  0.000  0.000
  0.000  0.000  1.000  0.000  0.000
  0.000  0.000  0.000  1.000  0.000
  0.000  0.000  0.000  0.000  1.000
   spin  2
    eigenvalues:
  0.000  0.000  0.000  0.000  0.000
    eigenvectors:
  1.000  0.000  0.000  0.000  0.000
  0.000  1.000  0.000  0.000  0.000
  0.000  0.000  1.000  0.000  0.000
  0.000  0.000  0.000  1.000  0.000
  0.000  0.000  0.000  0.000  1.000
    occupations:
  0.000  0.000  0.000  0.000  0.000
  0.000  0.000  0.000  0.000  0.000
  0.000  0.000  0.000  0.000  0.000
  0.000  0.000  0.000  0.000  0.000
  0.000  0.000  0.000  0.000  0.000
atomic mag. moment =     5.000000
atom    2   Tr[ns(na)] (up, down, total) =   5.00000  0.00000  5.00000
   spin  1
    eigenvalues:
  1.000  1.000  1.000  1.000  1.000
    eigenvectors:
  1.000  0.000  0.000  0.000  0.000
  0.000  1.000  0.000  0.000  0.000
  0.000  0.000  1.000  0.000  0.000
  0.000  0.000  0.000  1.000  0.000
  0.000  0.000  0.000  0.000  1.000
    occupations:
  1.000  0.000  0.000  0.000  0.000
  0.000  1.000  0.000  0.000  0.000
  0.000  0.000  1.000  0.000  0.000
  0.000  0.000  0.000  1.000  0.000
  0.000  0.000  0.000  0.000  1.000
   spin  2
    eigenvalues:
  0.000  0.000  0.000  0.000  0.000
    eigenvectors:
  1.000  0.000  0.000  0.000  0.000
  0.000  1.000  0.000  0.000  0.000
  0.000  0.000  1.000  0.000  0.000
  0.000  0.000  0.000  1.000  0.000
  0.000  0.000  0.000  0.000  1.000
    occupations:
  0.000  0.000  0.000  0.000  0.000
  0.000  0.000  0.000  0.000  0.000
  0.000  0.000  0.000  0.000  0.000
  0.000  0.000  0.000  0.000  0.000
  0.000  0.000  0.000  0.000  0.000
[...]
  1.000  0.000  0.000  0.000  0.000
  0.000  0.000  0.000  0.000  1.000
    occupations:
  0.073 -0.000 -0.000  0.000  0.000
 -0.000  0.080 -0.000  0.000  0.000
 -0.000 -0.000  0.080  0.000  0.000
  0.000  0.000  0.000  0.053 -0.000
  0.000  0.000  0.000 -0.000  0.124
   spin  2
    eigenvalues:
  1.003  1.003  1.003  1.004  1.004
    eigenvectors:
  0.000  0.000  0.000  1.000  0.000
  0.000  0.112  0.888  0.000  0.000
  0.000  0.888  0.112  0.000  0.000
  0.000  0.000  0.000  0.000  1.000
  1.000  0.000  0.000  0.000  0.000
    occupations:
  1.004 -0.000 -0.000  0.000  0.000
 -0.000  1.003 -0.000  0.000  0.000
 -0.000 -0.000  1.003  0.000  0.000
  0.000  0.000  0.000  1.004 -0.000
  0.000  0.000  0.000 -0.000  1.003
atomic mag. moment =    -4.606284
N of occupied +U levels =   43.416358
 --- exit write_ns ---

     total energy              =  -14687.28233935 Ry
     Harris-Foulkes estimate   =  -14685.82300914 Ry
     estimated scf accuracy    <      11.56777000 Ry

     total magnetization       =     0.00 Bohr mag/cell
     absolute magnetization    =    41.59 Bohr mag/cell

     iteration #  2     ecut=    45.00 Ry     beta= 0.10
     Davidson diagonalization with overlap
     ethr =  3.91E-03,  avg # of iterations =  1.0

[...]

     iteration # 13     ecut=    45.00 Ry     beta= 0.10
     Davidson diagonalization with overlap
     c_bands:  4 eigenvalues not converged
     ethr =  4.02E-06,  avg # of iterations =  1.6

[...]

     total energy              =  -14693.99921494 Ry
     Harris-Foulkes estimate   =  -14693.99921450 Ry
     estimated scf accuracy    <       0.00000859 Ry

[...]

     iteration # 31     ecut=    45.00 Ry     beta= 0.10
     Davidson diagonalization with overlap
     ethr =  1.32E-09,  avg # of iterations =  1.2

     Magnetic moment per site:
     atom:    1    charge:   13.5454    magn:    4.2489    constr:    0.0000
     atom:    2    charge:   13.5455    magn:    4.2489    constr:    0.0000
     atom:    3    charge:   13.5445    magn:   -4.2577    constr:    0.0000
     atom:    4    charge:   13.5447    magn:    4.2578    constr:    0.0000
     atom:    5    charge:   13.5454    magn:   -4.2489    constr:    0.0000
     atom:    6    charge:   13.5455    magn:   -4.2490    constr:    0.0000
     atom:    7    charge:   13.5445    magn:    4.2578    constr:    0.0000
     atom:    8    charge:   13.5446    magn:   -4.2578    constr:    0.0000
     atom:    9    charge:    9.1241    magn:    0.0384    constr:    0.0000
     atom:   10    charge:    9.1242    magn:    0.0384    constr:    0.0000
     atom:   11    charge:    9.1247    magn:    0.0422    constr:    0.0000
     atom:   12    charge:    9.1231    magn:   -0.0392    constr:    0.0000
     atom:   13    charge:    9.1242    magn:   -0.0396    constr:    0.0000
     atom:   14    charge:    9.1243    magn:    0.0396    constr:    0.0000
     atom:   15    charge:    9.1232    magn:    0.0392    constr:    0.0000
     atom:   16    charge:    9.1246    magn:   -0.0422    constr:    0.0000
     atom:   17    charge:    9.1241    magn:   -0.0384    constr:    0.0000
     atom:   18    charge:    9.1242    magn:   -0.0384    constr:    0.0000
     atom:   19    charge:    9.1247    magn:   -0.0422    constr:    0.0000
     atom:   20    charge:    9.1232    magn:    0.0395    constr:    0.0000
     atom:   21    charge:    9.1242    magn:    0.0399    constr:    0.0000
     atom:   22    charge:    9.1243    magn:   -0.0399    constr:    0.0000
     atom:   23    charge:    9.1233    magn:   -0.0395    constr:    0.0000
     atom:   24    charge:    9.1246    magn:    0.0422    constr:    0.0000

     End of self-consistent calculation
 --- enter write_ns ---
 LDA+U parameters:
U(  1) =   3.1200   J(  1) =   0.7000   B(  1) =   0.0803
U(  2) =   3.1200   J(  2) =   0.7000   B(  2) =   0.0803
atom    1   Tr[ns(na)] (up, down, total) =   4.97361  0.72555  5.69917
   spin  1
    eigenvalues:
  0.985  0.994  0.994  0.997  1.002
    eigenvectors:
  0.000  0.000  0.000  1.000  0.000
  0.000  0.152  0.848  0.000  0.000
  0.000  0.848  0.152  0.000  0.000
  0.000  0.000  0.000  0.000  1.000
  1.000  0.000  0.000  0.000  0.000
    occupations:
  0.997 -0.000 -0.000  0.000  0.000
 -0.000  0.994 -0.000  0.000  0.000
 -0.000 -0.000  0.994  0.000  0.000
  0.000  0.000  0.000  1.002 -0.000
  0.000  0.000  0.000 -0.000  0.985
   spin  2
    eigenvalues:
  0.066  0.123  0.144  0.144  0.249
    eigenvectors:
  0.000  1.000  0.000  0.000  0.000
  0.000  0.000  0.203  0.797  0.000
  0.000  0.000  0.797  0.203  0.000
  1.000  0.000  0.000  0.000  0.000
  0.000  0.000  0.000  0.000  1.000
    occupations:
  0.123 -0.000 -0.000  0.000  0.000
 -0.000  0.144 -0.000  0.000  0.000
 -0.000 -0.000  0.144  0.000  0.000
  0.000  0.000  0.000  0.066 -0.000
  0.000  0.000  0.000 -0.000  0.249
atomic mag. moment =     4.248058
atom    2   Tr[ns(na)] (up, down, total) =   4.97360  0.72560  5.69920
   spin  1
    eigenvalues:
  0.985  0.994  0.994  0.997  1.002
    eigenvectors:
  0.000  0.000  0.000  1.000  0.000
  0.000  0.097  0.903  0.000  0.000
  0.000  0.903  0.097  0.000  0.000
  0.000  0.000  0.000  0.000  1.000
  1.000  0.000  0.000  0.000  0.000
    occupations:
  0.997 -0.000 -0.000  0.000  0.000
 -0.000  0.994 -0.000  0.000  0.000
 -0.000 -0.000  0.994  0.000  0.000
  0.000  0.000  0.000  1.002 -0.000
  0.000  0.000  0.000 -0.000  0.985
   spin  2
    eigenvalues:
  0.066  0.123  0.144  0.144  0.249
    eigenvectors:
  0.000  1.000  0.000  0.000  0.000
  0.000  0.000  0.117  0.883  0.000
  0.000  0.000  0.883  0.117  0.000
  1.000  0.000  0.000  0.000  0.000
  0.000  0.000  0.000  0.000  1.000
    occupations:
  0.123 -0.000 -0.000  0.000  0.000
 -0.000  0.144 -0.000  0.000  0.000
 -0.000 -0.000  0.144  0.000  0.000
  0.000  0.000  0.000  0.066 -0.000
  0.000  0.000  0.000 -0.000  0.249
atomic mag. moment =     4.248006
atom    3   Tr[ns(na)] (up, down, total) =   0.71997  4.97222  5.69219
   spin  1
    eigenvalues:
  0.066  0.120  0.145  0.145  0.244
    eigenvectors:
  0.000  1.000  0.000  0.000  0.000
  0.000  0.000  0.110  0.890  0.000
  0.000  0.000  0.890  0.110  0.000
  1.000  0.000  0.000  0.000  0.000
  0.000  0.000  0.000  0.000  1.000
    occupations:
  0.120 -0.000 -0.000  0.000  0.000
 -0.000  0.145 -0.000  0.000  0.000
 -0.000 -0.000  0.145  0.000  0.000
  0.000  0.000  0.000  0.066 -0.000
  0.000  0.000  0.000 -0.000  0.244
   spin  2
    eigenvalues:
  0.985  0.994  0.994  0.997  1.003
    eigenvectors:
  0.000  0.000  0.000  1.000  0.000
  0.000  0.129  0.871  0.000  0.000
  0.000  0.871  0.129  0.000  0.000
  0.000  0.000  0.000  0.000  1.000
  1.000  0.000  0.000  0.000  0.000
    occupations:
  0.997 -0.000 -0.000  0.000  0.000
 -0.000  0.994 -0.000  0.000  0.000
 -0.000 -0.000  0.994  0.000  0.000
  0.000  0.000  0.000  1.003 -0.000
  0.000  0.000  0.000 -0.000  0.985
atomic mag. moment =    -4.252243
atom    4   Tr[ns(na)] (up, down, total) =   4.97222  0.71998  5.69220
   spin  1
    eigenvalues:
  0.985  0.994  0.994  0.997  1.003
    eigenvectors:
  0.000  0.000  0.000  1.000  0.000
  0.000  0.125  0.875  0.000  0.000
  0.000  0.875  0.125  0.000  0.000
  0.000  0.000  0.000  0.000  1.000
  1.000  0.000  0.000  0.000  0.000
    occupations:
  0.997 -0.000 -0.000  0.000  0.000
 -0.000  0.994 -0.000  0.000  0.000
 -0.000 -0.000  0.994  0.000  0.000
  0.000  0.000  0.000  1.003 -0.000
  0.000  0.000  0.000 -0.000  0.985
   spin  2
    eigenvalues:
  0.066  0.120  0.145  0.145  0.243
    eigenvectors:
  0.000  1.000  0.000  0.000  0.000
  0.000  0.000  0.137  0.863  0.000
  0.000  0.000  0.863  0.137  0.000
  1.000  0.000  0.000  0.000  0.000
  0.000  0.000  0.000  0.000  1.000
    occupations:
  0.120 -0.000 -0.000  0.000  0.000
 -0.000  0.145 -0.000  0.000  0.000
 -0.000 -0.000  0.145  0.000  0.000
  0.000  0.000  0.000  0.066 -0.000
  0.000  0.000  0.000 -0.000  0.243
atomic mag. moment =     4.252243
atom    5   Tr[ns(na)] (up, down, total) =   0.72561  4.97361  5.69922
   spin  1
    eigenvalues:
  0.066  0.123  0.144  0.144  0.249
    eigenvectors:
  0.000  1.000  0.000  0.000  0.000
  0.000  0.000  0.137  0.863  0.000
  0.000  0.000  0.863  0.137  0.000
  1.000  0.000  0.000  0.000  0.000
  0.000  0.000  0.000  0.000  1.000
    occupations:
  0.123 -0.000 -0.000  0.000  0.000
 -0.000  0.144 -0.000  0.000  0.000
 -0.000 -0.000  0.144  0.000  0.000
  0.000  0.000  0.000  0.066 -0.000
  0.000  0.000  0.000 -0.000  0.249
   spin  2
    eigenvalues:
  0.985  0.994  0.994  0.997  1.002
    eigenvectors:
  0.000  0.000  0.000  1.000  0.000
  0.000  0.119  0.881  0.000  0.000
  0.000  0.881  0.119  0.000  0.000
  0.000  0.000  0.000  0.000  1.000
  1.000  0.000  0.000  0.000  0.000
    occupations:
  0.997 -0.000 -0.000  0.000  0.000
 -0.000  0.994 -0.000  0.000  0.000
 -0.000 -0.000  0.994  0.000  0.000
  0.000  0.000  0.000  1.002 -0.000
  0.000  0.000  0.000 -0.000  0.985
atomic mag. moment =    -4.247996
atom    6   Tr[ns(na)] (up, down, total) =   0.72555  4.97361  5.69916
   spin  1
    eigenvalues:
  0.066  0.123  0.144  0.144  0.249
    eigenvectors:
  0.000  1.000  0.000  0.000  0.000
  0.000  0.000  0.157  0.843  0.000
  0.000  0.000  0.843  0.157  0.000
  1.000  0.000  0.000  0.000  0.000
  0.000  0.000  0.000  0.000  1.000
    occupations:
  0.123 -0.000 -0.000  0.000  0.000
 -0.000  0.144 -0.000  0.000  0.000
 -0.000 -0.000  0.144  0.000  0.000
  0.000  0.000  0.000  0.066 -0.000
  0.000  0.000  0.000 -0.000  0.249
   spin  2
    eigenvalues:
  0.985  0.994  0.994  0.997  1.002
    eigenvectors:
  0.000  0.000  0.000  1.000  0.000
  0.000  0.099  0.901  0.000  0.000
  0.000  0.901  0.099  0.000  0.000
  0.000  0.000  0.000  0.000  1.000
  1.000  0.000  0.000  0.000  0.000
    occupations:
  0.997 -0.000 -0.000  0.000  0.000
 -0.000  0.994 -0.000  0.000  0.000
 -0.000 -0.000  0.994  0.000  0.000
  0.000  0.000  0.000  1.002 -0.000
  0.000  0.000  0.000 -0.000  0.985
atomic mag. moment =    -4.248056
atom    7   Tr[ns(na)] (up, down, total) =   4.97229  0.71990  5.69219
   spin  1
    eigenvalues:
  0.985  0.994  0.994  0.997  1.003
    eigenvectors:
  0.000  0.000  0.000  1.000  0.000
  0.000  0.099  0.901  0.000  0.000
  0.000  0.901  0.099  0.000  0.000
  0.000  0.000  0.000  0.000  1.000
  1.000  0.000  0.000  0.000  0.000
    occupations:
  0.997 -0.000 -0.000  0.000  0.000
 -0.000  0.994 -0.000  0.000  0.000
 -0.000 -0.000  0.994  0.000  0.000
  0.000  0.000  0.000  1.003 -0.000
  0.000  0.000  0.000 -0.000  0.985
   spin  2
    eigenvalues:
  0.066  0.120  0.145  0.145  0.243
    eigenvectors:
  0.000  1.000  0.000  0.000  0.000
  0.000  0.000  0.102  0.898  0.000
  0.000  0.000  0.898  0.102  0.000
  1.000  0.000  0.000  0.000  0.000
  0.000  0.000  0.000  0.000  1.000
    occupations:
  0.120 -0.000 -0.000  0.000  0.000
 -0.000  0.145 -0.000  0.000  0.000
 -0.000 -0.000  0.145  0.000  0.000
  0.000  0.000  0.000  0.066 -0.000
  0.000  0.000  0.000 -0.000  0.243
atomic mag. moment =     4.252389
atom    8   Tr[ns(na)] (up, down, total) =   0.71988  4.97230  5.69217
   spin  1
    eigenvalues:
  0.066  0.120  0.145  0.145  0.243
    eigenvectors:
  0.000  1.000  0.000  0.000  0.000
  0.000  0.000  0.102  0.898  0.000
  0.000  0.000  0.898  0.102  0.000
  1.000  0.000  0.000  0.000  0.000
  0.000  0.000  0.000  0.000  1.000
    occupations:
  0.120 -0.000 -0.000  0.000  0.000
 -0.000  0.145 -0.000  0.000  0.000
 -0.000 -0.000  0.145  0.000  0.000
  0.000  0.000  0.000  0.066 -0.000
  0.000  0.000  0.000 -0.000  0.243
   spin  2
    eigenvalues:
  0.985  0.994  0.994  0.997  1.003
    eigenvectors:
  0.000  0.000  0.000  1.000  0.000
  0.000  0.103  0.897  0.000  0.000
  0.000  0.897  0.103  0.000  0.000
  0.000  0.000  0.000  0.000  1.000
  1.000  0.000  0.000  0.000  0.000
    occupations:
  0.997 -0.000 -0.000  0.000  0.000
 -0.000  0.994 -0.000  0.000  0.000
 -0.000 -0.000  0.994  0.000  0.000
  0.000  0.000  0.000  1.003 -0.000
  0.000  0.000  0.000 -0.000  0.985
atomic mag. moment =    -4.252416
N of occupied +U levels =   45.565516
 --- exit write_ns ---

 ------ SPIN UP ------------

          k = 0.0000 0.0000 0.0000 ( 13925 PWs)   bands (ev):

   -66.7943 -66.7924 -66.7427 -66.7422 -62.1863 -62.1846 -62.1389 -62.1385
   -35.5588 -35.5568 -35.5135 -35.5133 -35.5121 -35.5121 -35.5104 -35.5104
   -35.4585 -35.4585 -35.4581 -35.4581 -31.0068 -31.0056 -31.0056 -31.0049
   -31.0041 -31.0041 -30.9642 -30.9637 -30.9574 -30.9574 -30.9570 -30.9570
     5.7782   5.9231   5.9443   6.3704   6.4060   7.0546   7.0626   7.6217
     8.3484   8.4220   8.4356   8.5142   8.5155   8.5584   8.5745   8.7353
     8.8215   8.8488   8.9582   9.0870   9.1446   9.2374   9.2657   9.2794
     9.3063   9.3798   9.4634   9.5389   9.8506   9.9097   9.9247   9.9926
     9.9940  10.1292  10.1364  10.1364  10.1488  10.1503  10.1682  10.1752
    10.1776  10.1776  10.2031  10.2031  10.3062  10.3466  10.3466  10.3574
    10.3574  10.5185  10.5704  10.5836  10.5836  10.5936  10.5988  10.5988
    10.6049  10.6049  10.6099  10.6191  10.6191  10.6257  10.6257  10.6753
    10.7063  10.7063  10.9442  10.9442  10.9531  11.0535  11.0535  11.0844
    11.1370  11.1544  11.2601  11.2864  11.3274  11.3287  11.4218  11.4218
    11.4246  11.4246  11.4465  11.4649  11.6683  11.7319  11.7572  11.8113
    11.8113  11.9170  11.9184  11.9599  11.9599  12.0442  12.1116  12.1616
    12.1798  12.2533  12.3360  12.3360  12.3374  12.3374  12.5872  12.5872
    12.6782  12.8203  12.8217  12.8290  12.9991  12.9998  13.0335  13.6515
    13.9191  15.0333  15.0684  15.9276  16.8078  16.8078  16.9176  16.9176
    16.9195  16.9195  16.9638  16.9649  16.9794  17.0340  17.1100  17.1100
    17.1597  17.1612  17.1620  17.2150  17.5554  17.5890  17.6142  17.6301
    18.6004  19.6820  19.7003  20.1031  20.1031  20.4908  20.4908  20.5113
    20.5113  21.4958

[...]

          k =-0.5000-0.5000 0.0000 ( 13964 PWs)   bands (ev):

[...]

 ------ SPIN DOWN ----------

[...]

          k = 0.3750-0.5000-0.0484 ( 13940 PWs)   bands (ev):

[...]

          k =-0.5000-0.5000-0.0484 ( 13992 PWs)   bands (ev):

   -66.7927 -66.7911 -66.7415 -66.7408 -62.1852 -62.1833 -62.1375 -62.1372
   -35.5569 -35.5551 -35.5225 -35.5225 -35.5211 -35.5211 -35.5120 -35.5114
   -35.4694 -35.4694 -35.4687 -35.4687 -31.0193 -31.0193 -31.0176 -31.0176
   -31.0047 -31.0024 -30.9708 -30.9708 -30.9706 -30.9706 -30.9616 -30.9613
     8.1014   8.1015   8.2167   8.2173   8.2922   8.2925   8.5796   8.5797
     8.8699   8.8701   9.0519   9.0523   9.2701   9.2701   9.2758   9.2758
     9.3173   9.3177   9.3560   9.3560   9.3657   9.3664   9.3719   9.3719
     9.5518   9.5518   9.5547   9.5547   9.8569   9.8569   9.8658   9.8658
     9.8933   9.8941   9.9278   9.9278   9.9636   9.9636   9.9649   9.9649
    10.0295  10.0305  10.0703  10.0703  10.2781  10.2781  10.3223  10.3223
    10.5592  10.5600  10.6620  10.6624  10.7424  10.7424  10.9774  10.9774
    11.1367  11.1368  11.1877  11.1888  11.2847  11.2859  11.3595  11.3595
    11.4231  11.4243  11.4250  11.4252  11.4755  11.4762  11.7711  11.7711
    11.9594  11.9608  11.9850  11.9856  11.9864  11.9868  12.0116  12.0119
    12.0496  12.0509  12.0616  12.0616  12.0775  12.0790  12.0800  12.0802
    12.1069  12.1071  12.1823  12.1835  12.2291  12.2295  12.2952  12.2952
    12.3720  12.3720  12.3859  12.3868  13.4014  13.4025  13.4297  13.4297
    13.9179  13.9179  14.0030  14.0030  14.2523  14.2523  14.6017  14.6017
    15.2330  15.2330  15.9286  15.9286  15.9540  15.9540  16.6214  16.6226
    16.6843  16.6843  16.7168  16.7176  16.8850  16.8858  17.1320  17.1330
    17.4822  17.4822  17.8131  17.8137  17.8216  17.8227  17.8355  17.8355
    18.0670  18.0685  18.1030  18.1031  18.1156  18.1162  18.4328  18.4336
    18.6374  18.6374

     the Fermi energy is    15.3013 ev

!    total energy              =  -14693.99921762 Ry
     Harris-Foulkes estimate   =  -14693.99921503 Ry
     estimated scf accuracy    <       0.00000038 Ry

     total all-electron energy =   -626921.594940 Ry

     The total energy is the sum of the following terms:

     one-electron contribution =    -714.32462805 Ry
     hartree contribution      =     656.42200165 Ry
     xc contribution           =    -737.89612073 Ry
     ewald contribution        =   -2196.78933708 Ry
     Hubbard energy            =       0.44340247 Ry
     one-center paw contrib.   =  -11701.85453587 Ry

     total magnetization       =    -0.00 Bohr mag/cell
     absolute magnetization    =    37.38 Bohr mag/cell

     convergence has been achieved in  31 iterations

     Writing output data file mnau2.save/

     General routines

     Parallel routines

     Hubbard U routines

   This run was terminated on:  22:46:28   6Apr2019

   JOB DONE.