     Program PWSCF v.6.3MaX starts on  7Apr2019 at 19:16:33

     R & G space division:  proc/nbgrp/npool/nimage =      42
     Waiting for input...
     Reading input from standard input

     Current dimensions of program PWSCF are:
     Max number of different atomic species (ntypx) = 10
     Max number of k-points (npk) =  40000
     Max angular momentum in pseudopotentials (lmaxx) =  3
               file Mn.pbe-spn-kjpaw_psl.0.3.1.UPF: wavefunction(s)  3P 3D renormalized
               file Mn.pbe-spn-kjpaw_psl.0.3.1.UPF: wavefunction(s)  3P 3D renormalized
               file Au.pbe-dn-kjpaw_psl.0.1.UPF: wavefunction(s)  6S 6P 5D renormalized

     Found symmetry operation: I + (  0.0000  0.0000 -0.5000)
     This is a supercell, fractional translations are disabled

     bravais-lattice index     =            0
     lattice parameter (alat)  =       6.4153  a.u.
     unit-cell volume          =    2724.7774 (a.u.)^3
     number of atoms/cell      =           24
     number of atomic types    =            3
     number of electrons       =       296.00
     number of Kohn-Sham states=          178
     kinetic-energy cutoff     =      45.0000  Ry
     charge density cutoff     =     400.0000  Ry
     convergence threshold     =      1.0E-06
     mixing beta               =       0.1000
     number of iterations used =            8  plain     mixing
     Exchange-correlation      = SLA PW PBX PBC ( 1  4  3  4 0 0)

     celldm(1)=   6.415315  celldm(2)=   0.000000  celldm(3)=   0.000000
     celldm(4)=   0.000000  celldm(5)=   0.000000  celldm(6)=   0.000000

     crystal axes: (cart. coord. in units of alat)
               a(1) = (   1.000000   0.000000   0.000000 )
               a(2) = (   0.000000   1.000000   0.000000 )
               a(3) = (   0.000000   0.000000  10.319937 )

     reciprocal axes: (cart. coord. in units 2 pi/alat)
               b(1) = (  1.000000  0.000000  0.000000 )
               b(2) = (  0.000000  1.000000  0.000000 )
               b(3) = (  0.000000  0.000000  0.096900 )

     PseudoPot. # 1 for Mn read from file:
     ./pseudo/Mn.pbe-spn-kjpaw_psl.0.3.1.UPF
     MD5 check sum: 7b43a3fb0e93e198b8dd8488d8cf503e
     Pseudo is Projector augmented-wave + core cor, Zval = 15.0
     Generated using "atomic" code by A. Dal Corso v.5.0.99 svn rev. 10869
     Shape of augmentation charge: PSQ
     Using radial grid of 1187 points,  6 beta functions with:
                l(1) =   0
                l(2) =   0
                l(3) =   1
                l(4) =   1
                l(5) =   2
                l(6) =   2
     Q(r) pseudized with 0 coefficients

     PseudoPot. # 2 for Mn read from file:
     ./pseudo/Mn.pbe-spn-kjpaw_psl.0.3.1.UPF
     MD5 check sum: 7b43a3fb0e93e198b8dd8488d8cf503e
     Pseudo is Projector augmented-wave + core cor, Zval = 15.0
     Generated using "atomic" code by A. Dal Corso v.5.0.99 svn rev. 10869
     Shape of augmentation charge: PSQ
     Using radial grid of 1187 points,  6 beta functions with:
                l(1) =   0
                l(2) =   0
                l(3) =   1
                l(4) =   1
                l(5) =   2
                l(6) =   2
     Q(r) pseudized with 0 coefficients

     PseudoPot. # 3 for Au read from file:
     ./pseudo/Au.pbe-dn-kjpaw_psl.0.1.UPF
     MD5 check sum: be11e2e8e535ebe2b3ccfb4f88f554cb
     Pseudo is Projector augmented-wave + core cor, Zval = 11.0
     Generated using "atomic" code by A. Dal Corso v.5.0.2 svn rev. 9415
     Shape of augmentation charge: PSQ
     Using radial grid of 1279 points,  6 beta functions with:
                l(1) =   0
                l(2) =   0
                l(3) =   1
                l(4) =   1
                l(5) =   2
                l(6) =   2
     Q(r) pseudized with 0 coefficients

     atomic species   valence    mass     pseudopotential
        Mn1           15.00    54.93800     Mn( 1.00)
        Mn2           15.00    54.93800     Mn( 1.00)
        Au            11.00   196.96600     Au( 1.00)

     Starting magnetic structure
     atomic species   magnetization
        Mn1          0.800
        Mn2         -0.800
        Au           0.000

     Full LDA+U calculation (l_max = 2) with parameters (eV):
     U(  1) =   3.1200   J(  1) =   0.7000   B(  1) =   0.0803
     U(  2) =   3.1200   J(  2) =   0.7000   B(  2) =   0.0803

      8 Sym. Ops. (no inversion) found

   Cartesian axes

     site n.     atom                  positions (alat units)
         1           Mn1 tau(   1) = (   0.0000000   0.0000000   0.0000000  )
         2           Mn1 tau(   2) = (   0.5000000   0.5000000   1.2899921  )
         3           Mn2 tau(   3) = (   0.0000000   0.0000000   2.5799843  )
         4           Mn2 tau(   4) = (   0.5000000   0.5000000   3.8699764  )
         5           Mn1 tau(   5) = (   0.0000000   0.0000000   5.1599686  )
         6           Mn1 tau(   6) = (   0.5000000   0.5000000   6.4499607  )
         7           Mn2 tau(   7) = (   0.0000000   0.0000000   7.7399528  )
         8           Mn2 tau(   8) = (   0.5000000   0.5000000   9.0299450  )
         9           Au  tau(   9) = (   0.5000000   0.5000000   0.4127975  )
        10           Au  tau(  10) = (   0.0000000   0.0000000   0.8771947  )
        11           Au  tau(  11) = (   0.0000000   0.0000000   1.7027896  )
        12           Au  tau(  12) = (   0.5000000   0.5000000   2.1671868  )
        13           Au  tau(  13) = (   0.5000000   0.5000000   2.9927818  )
        14           Au  tau(  14) = (   0.0000000   0.0000000   3.4571789  )
        15           Au  tau(  15) = (   0.0000000   0.0000000   4.2827739  )
        16           Au  tau(  16) = (   0.5000000   0.5000000   4.7471711  )
        17           Au  tau(  17) = (   0.5000000   0.5000000   5.5727660  )
        18           Au  tau(  18) = (   0.0000000   0.0000000   6.0371632  )
        19           Au  tau(  19) = (   0.0000000   0.0000000   6.8627582  )
        20           Au  tau(  20) = (   0.5000000   0.5000000   7.3271553  )
        21           Au  tau(  21) = (   0.5000000   0.5000000   8.1527503  )
        22           Au  tau(  22) = (   0.0000000   0.0000000   8.6171475  )
        23           Au  tau(  23) = (   0.0000000   0.0000000   9.4427424  )
        24           Au  tau(  24) = (   0.5000000   0.5000000   9.9071396  )

     number of k points=    30 (tetrahedron method)
                       cart. coord. in units 2pi/alat
        k(    1) = (   0.0000000   0.0000000   0.0000000), wk =   0.0078125
        k(    2) = (   0.0000000   0.0000000  -0.0484499), wk =   0.0078125
        k(    3) = (   0.0000000   0.1250000   0.0000000), wk =   0.0312500
        k(    4) = (   0.0000000   0.1250000  -0.0484499), wk =   0.0312500
        k(    5) = (   0.0000000   0.2500000   0.0000000), wk =   0.0312500
        k(    6) = (   0.0000000   0.2500000  -0.0484499), wk =   0.0312500
        k(    7) = (   0.0000000   0.3750000   0.0000000), wk =   0.0312500
        k(    8) = (   0.0000000   0.3750000  -0.0484499), wk =   0.0312500
        k(    9) = (   0.0000000  -0.5000000   0.0000000), wk =   0.0156250
        k(   10) = (   0.0000000  -0.5000000  -0.0484499), wk =   0.0156250
        k(   11) = (   0.1250000   0.1250000   0.0000000), wk =   0.0312500
        k(   12) = (   0.1250000   0.1250000  -0.0484499), wk =   0.0312500
        k(   13) = (   0.1250000   0.2500000   0.0000000), wk =   0.0625000
        k(   14) = (   0.1250000   0.2500000  -0.0484499), wk =   0.0625000
        k(   15) = (   0.1250000   0.3750000   0.0000000), wk =   0.0625000
        k(   16) = (   0.1250000   0.3750000  -0.0484499), wk =   0.0625000
        k(   17) = (   0.1250000  -0.5000000   0.0000000), wk =   0.0312500
        k(   18) = (   0.1250000  -0.5000000  -0.0484499), wk =   0.0312500
        k(   19) = (   0.2500000   0.2500000   0.0000000), wk =   0.0312500
        k(   20) = (   0.2500000   0.2500000  -0.0484499), wk =   0.0312500
        k(   21) = (   0.2500000   0.3750000   0.0000000), wk =   0.0625000
        k(   22) = (   0.2500000   0.3750000  -0.0484499), wk =   0.0625000
        k(   23) = (   0.2500000  -0.5000000   0.0000000), wk =   0.0312500
        k(   24) = (   0.2500000  -0.5000000  -0.0484499), wk =   0.0312500
        k(   25) = (   0.3750000   0.3750000   0.0000000), wk =   0.0312500
        k(   26) = (   0.3750000   0.3750000  -0.0484499), wk =   0.0312500
        k(   27) = (   0.3750000  -0.5000000   0.0000000), wk =   0.0312500
        k(   28) = (   0.3750000  -0.5000000  -0.0484499), wk =   0.0312500
        k(   29) = (  -0.5000000  -0.5000000   0.0000000), wk =   0.0078125
        k(   30) = (  -0.5000000  -0.5000000  -0.0484499), wk =   0.0078125

     Check: negative/imaginary core charge=   -0.000006    0.000000

     Initial potential from superposition of free atoms

     starting charge  295.99426, renormalised to  296.00000
     Number of +U iterations with fixed ns =  0
     Starting occupations:
 --- enter write_ns ---
 LDA+U parameters:
U(  1) =   3.1200   J(  1) =   0.7000   B(  1) =   0.0803
U(  2) =   3.1200   J(  2) =   0.7000   B(  2) =   0.0803
atom    1   Tr[ns(na)] (up, down, total) =   5.00000  0.00000  5.00000
   spin  1
    eigenvalues:
  1.000  1.000  1.000  1.000  1.000
    eigenvectors:
  1.000  0.000  0.000  0.000  0.000
  0.000  1.000  0.000  0.000  0.000
  0.000  0.000  1.000  0.000  0.000
  0.000  0.000  0.000  1.000  0.000
  0.000  0.000  0.000  0.000  1.000
    occupations:
  1.000  0.000  0.000  0.000  0.000
  0.000  1.000  0.000  0.000  0.000
  0.000  0.000  1.000  0.000  0.000
  0.000  0.000  0.000  1.000  0.000
  0.000  0.000  0.000  0.000  1.000
   spin  2
    eigenvalues:
  0.000  0.000  0.000  0.000  0.000
    eigenvectors:
  1.000  0.000  0.000  0.000  0.000
  0.000  1.000  0.000  0.000  0.000
  0.000  0.000  1.000  0.000  0.000
  0.000  0.000  0.000  1.000  0.000
  0.000  0.000  0.000  0.000  1.000
    occupations:
  0.000  0.000  0.000  0.000  0.000
  0.000  0.000  0.000  0.000  0.000
  0.000  0.000  0.000  0.000  0.000
  0.000  0.000  0.000  0.000  0.000
  0.000  0.000  0.000  0.000  0.000
atomic mag. moment =     5.000000
atom    2   Tr[ns(na)] (up, down, total) =   5.00000  0.00000  5.00000
   spin  1
    eigenvalues:
  1.000  1.000  1.000  1.000  1.000
    eigenvectors:
  1.000  0.000  0.000  0.000  0.000
  0.000  1.000  0.000  0.000  0.000
  0.000  0.000  1.000  0.000  0.000
  0.000  0.000  0.000  1.000  0.000
  0.000  0.000  0.000  0.000  1.000
    occupations:
  1.000  0.000  0.000  0.000  0.000
  0.000  1.000  0.000  0.000  0.000
  0.000  0.000  1.000  0.000  0.000
  0.000  0.000  0.000  1.000  0.000
  0.000  0.000  0.000  0.000  1.000
   spin  2
    eigenvalues:
  0.000  0.000  0.000  0.000  0.000
    eigenvectors:
  1.000  0.000  0.000  0.000  0.000
  0.000  1.000  0.000  0.000  0.000
  0.000  0.000  1.000  0.000  0.000
  0.000  0.000  0.000  1.000  0.000
  0.000  0.000  0.000  0.000  1.000
    occupations:
  0.000  0.000  0.000  0.000  0.000
  0.000  0.000  0.000  0.000  0.000
  0.000  0.000  0.000  0.000  0.000
  0.000  0.000  0.000  0.000  0.000
  0.000  0.000  0.000  0.000  0.000
[...]
   spin  1
    eigenvalues:
  0.053  0.075  0.082  0.082  0.120
    eigenvectors:
  0.000  1.000  0.000  0.000  0.000
  0.000  0.000  0.332  0.668  0.000
  0.000  0.000  0.668  0.332  0.000
  1.000  0.000  0.000  0.000  0.000
  0.000  0.000  0.000  0.000  1.000
    occupations:
  0.075 -0.000 -0.000  0.000  0.000
 -0.000  0.082 -0.000  0.000  0.000
 -0.000 -0.000  0.082  0.000  0.000
  0.000  0.000  0.000  0.053 -0.000
  0.000  0.000  0.000 -0.000  0.120
   spin  2
    eigenvalues:
  1.003  1.003  1.003  1.004  1.004
    eigenvectors:
  0.000  0.000  0.000  1.000  0.000
  0.000  0.274  0.726  0.000  0.000
  0.000  0.726  0.274  0.000  0.000
  0.000  0.000  0.000  0.000  1.000
  1.000  0.000  0.000  0.000  0.000
    occupations:
  1.004 -0.000 -0.000  0.000  0.000
 -0.000  1.003 -0.000  0.000  0.000
 -0.000 -0.000  1.003  0.000  0.000
  0.000  0.000  0.000  1.004 -0.000
  0.000  0.000  0.000 -0.000  1.003
atomic mag. moment =    -4.606133
N of occupied +U levels =   43.436937
 --- exit write_ns ---

     total energy              =  -14687.27578579 Ry
     Harris-Foulkes estimate   =  -14685.81265035 Ry
     estimated scf accuracy    <      11.56825664 Ry

     total magnetization       =    -0.00 Bohr mag/cell
     absolute magnetization    =    41.48 Bohr mag/cell

     iteration #  2     ecut=    45.00 Ry     beta= 0.10
     Davidson diagonalization with overlap
     ethr =  3.91E-03,  avg # of iterations =  1.0

[...]

     total energy              =  -14694.00895217 Ry
     Harris-Foulkes estimate   =  -14694.00895219 Ry
     estimated scf accuracy    <       0.00002465 Ry

[...]

     iteration # 64     ecut=    45.00 Ry     beta= 0.10
     Davidson diagonalization with overlap
     ethr =  1.54E-09,  avg # of iterations =  1.0

     Magnetic moment per site:
     atom:    1    charge:   13.5492    magn:    4.2277    constr:    0.0000
     atom:    2    charge:   13.5496    magn:    4.2273    constr:    0.0000
     atom:    3    charge:   13.5493    magn:   -4.2279    constr:    0.0000
     atom:    4    charge:   13.5496    magn:   -4.2272    constr:    0.0000
     atom:    5    charge:   13.5495    magn:    4.2274    constr:    0.0000
     atom:    6    charge:   13.5494    magn:    4.2278    constr:    0.0000
     atom:    7    charge:   13.5494    magn:   -4.2272    constr:    0.0000
     atom:    8    charge:   13.5494    magn:   -4.2279    constr:    0.0000
     atom:    9    charge:    9.1227    magn:    0.0377    constr:    0.0000
     atom:   10    charge:    9.1228    magn:    0.0376    constr:    0.0000
     atom:   11    charge:    9.1224    magn:    0.0434    constr:    0.0000
     atom:   12    charge:    9.1224    magn:   -0.0437    constr:    0.0000
     atom:   13    charge:    9.1227    magn:   -0.0377    constr:    0.0000
     atom:   14    charge:    9.1228    magn:   -0.0378    constr:    0.0000
     atom:   15    charge:    9.1225    magn:   -0.0436    constr:    0.0000
     atom:   16    charge:    9.1224    magn:    0.0437    constr:    0.0000
     atom:   17    charge:    9.1227    magn:    0.0378    constr:    0.0000
     atom:   18    charge:    9.1228    magn:    0.0377    constr:    0.0000
     atom:   19    charge:    9.1225    magn:    0.0436    constr:    0.0000
     atom:   20    charge:    9.1224    magn:   -0.0434    constr:    0.0000
     atom:   21    charge:    9.1227    magn:   -0.0376    constr:    0.0000
     atom:   22    charge:    9.1228    magn:   -0.0376    constr:    0.0000
     atom:   23    charge:    9.1225    magn:   -0.0438    constr:    0.0000
     atom:   24    charge:    9.1224    magn:    0.0437    constr:    0.0000

     End of self-consistent calculation
 --- enter write_ns ---
 LDA+U parameters:
U(  1) =   3.1200   J(  1) =   0.7000   B(  1) =   0.0803
U(  2) =   3.1200   J(  2) =   0.7000   B(  2) =   0.0803
atom    1   Tr[ns(na)] (up, down, total) =   4.97112  0.74494  5.71606
   spin  1
    eigenvalues:
  0.985  0.994  0.994  0.996  1.002
    eigenvectors:
  0.000  0.000  0.000  1.000  0.000
  0.000  0.340  0.660  0.000  0.000
  0.000  0.660  0.340  0.000  0.000
  0.000  0.000  0.000  0.000  1.000
  1.000  0.000  0.000  0.000  0.000
    occupations:
  0.996 -0.000 -0.000  0.000  0.000
 -0.000  0.994 -0.000  0.000  0.000
 -0.000 -0.000  0.994  0.000  0.000
  0.000  0.000  0.000  1.002 -0.000
  0.000  0.000  0.000 -0.000  0.985
   spin  2
    eigenvalues:
  0.064  0.134  0.145  0.145  0.257
    eigenvectors:
  0.000  1.000  0.000  0.000  0.000
  0.000  0.000  0.364  0.636  0.000
  0.000  0.000  0.636  0.364  0.000
  1.000  0.000  0.000  0.000  0.000
  0.000  0.000  0.000  0.000  1.000
    occupations:
  0.134 -0.000 -0.000  0.000  0.000
 -0.000  0.145 -0.000  0.000  0.000
 -0.000 -0.000  0.145  0.000  0.000
  0.000  0.000  0.000  0.064 -0.000
  0.000  0.000  0.000 -0.000  0.257
atomic mag. moment =     4.226177
atom    2   Tr[ns(na)] (up, down, total) =   4.97103  0.74551  5.71654
   spin  1
    eigenvalues:
  0.985  0.994  0.994  0.996  1.002
    eigenvectors:
  0.000  0.000  0.000  1.000  0.000
  0.000  0.322  0.678  0.000  0.000
  0.000  0.678  0.322  0.000  0.000
  0.000  0.000  0.000  0.000  1.000
  1.000  0.000  0.000  0.000  0.000
    occupations:
  0.996 -0.000 -0.000  0.000  0.000
 -0.000  0.994 -0.000  0.000  0.000
 -0.000 -0.000  0.994  0.000  0.000
  0.000  0.000  0.000  1.002 -0.000
  0.000  0.000  0.000 -0.000  0.985
   spin  2
    eigenvalues:
  0.064  0.134  0.145  0.145  0.257
    eigenvectors:
  0.000  1.000  0.000  0.000  0.000
  0.000  0.000  0.326  0.674  0.000
  0.000  0.000  0.674  0.326  0.000
  1.000  0.000  0.000  0.000  0.000
  0.000  0.000  0.000  0.000  1.000
    occupations:
  0.134 -0.000 -0.000  0.000  0.000
 -0.000  0.145 -0.000  0.000  0.000
 -0.000 -0.000  0.145  0.000  0.000
  0.000  0.000  0.000  0.064 -0.000
  0.000  0.000  0.000 -0.000  0.257
atomic mag. moment =     4.225521
atom    3   Tr[ns(na)] (up, down, total) =   0.74491  4.97111  5.71602
   spin  1
    eigenvalues:
  0.064  0.134  0.145  0.145  0.257
    eigenvectors:
  0.000  1.000  0.000  0.000  0.000
  0.000  0.000  0.361  0.639  0.000
  0.000  0.000  0.639  0.361  0.000
  1.000  0.000  0.000  0.000  0.000
  0.000  0.000  0.000  0.000  1.000
    occupations:
  0.134 -0.000 -0.000  0.000  0.000
 -0.000  0.145 -0.000  0.000  0.000
 -0.000 -0.000  0.145  0.000  0.000
  0.000  0.000  0.000  0.064 -0.000
  0.000  0.000  0.000 -0.000  0.257
   spin  2
    eigenvalues:
  0.985  0.994  0.994  0.996  1.002
    eigenvectors:
  0.000  0.000  0.000  1.000  0.000
  0.000  0.304  0.696  0.000  0.000
  0.000  0.696  0.304  0.000  0.000
  0.000  0.000  0.000  0.000  1.000
  1.000  0.000  0.000  0.000  0.000
    occupations:
  0.996 -0.000 -0.000  0.000  0.000
 -0.000  0.994 -0.000  0.000  0.000
 -0.000 -0.000  0.994  0.000  0.000
  0.000  0.000  0.000  1.002 -0.000
  0.000  0.000  0.000 -0.000  0.985
atomic mag. moment =    -4.226200
atom    4   Tr[ns(na)] (up, down, total) =   0.74553  4.97113  5.71666
   spin  1
    eigenvalues:
  0.064  0.134  0.145  0.145  0.257
    eigenvectors:
  0.000  1.000  0.000  0.000  0.000
  0.000  0.000  0.320  0.680  0.000
  0.000  0.000  0.680  0.320  0.000
  1.000  0.000  0.000  0.000  0.000
  0.000  0.000  0.000  0.000  1.000
    occupations:
  0.134 -0.000 -0.000  0.000  0.000
 -0.000  0.145 -0.000  0.000  0.000
 -0.000 -0.000  0.145  0.000  0.000
  0.000  0.000  0.000  0.064 -0.000
  0.000  0.000  0.000 -0.000  0.257
   spin  2
    eigenvalues:
  0.984  0.994  0.994  0.996  1.002
    eigenvectors:
  0.000  0.000  0.000  1.000  0.000
  0.000  0.336  0.664  0.000  0.000
  0.000  0.664  0.336  0.000  0.000
  0.000  0.000  0.000  0.000  1.000
  1.000  0.000  0.000  0.000  0.000
    occupations:
  0.996 -0.000 -0.000  0.000  0.000
 -0.000  0.994 -0.000  0.000  0.000
 -0.000 -0.000  0.994  0.000  0.000
  0.000  0.000  0.000  1.002 -0.000
  0.000  0.000  0.000 -0.000  0.984
atomic mag. moment =    -4.225593
atom    5   Tr[ns(na)] (up, down, total) =   4.97113  0.74547  5.71660
   spin  1
    eigenvalues:
  0.984  0.994  0.994  0.996  1.002
    eigenvectors:
  0.000  0.000  0.000  1.000  0.000
  0.000  0.315  0.685  0.000  0.000
  0.000  0.685  0.315  0.000  0.000
  0.000  0.000  0.000  0.000  1.000
  1.000  0.000  0.000  0.000  0.000
    occupations:
  0.996 -0.000 -0.000  0.000  0.000
 -0.000  0.994 -0.000  0.000  0.000
 -0.000 -0.000  0.994  0.000  0.000
  0.000  0.000  0.000  1.002 -0.000
  0.000  0.000  0.000 -0.000  0.984
   spin  2
    eigenvalues:
  0.064  0.134  0.145  0.145  0.257
    eigenvectors:
  0.000  1.000  0.000  0.000  0.000
  0.000  0.000  0.242  0.758  0.000
  0.000  0.000  0.758  0.242  0.000
  1.000  0.000  0.000  0.000  0.000
  0.000  0.000  0.000  0.000  1.000
    occupations:
  0.134 -0.000 -0.000  0.000  0.000
 -0.000  0.145 -0.000  0.000  0.000
 -0.000 -0.000  0.145  0.000  0.000
  0.000  0.000  0.000  0.064 -0.000
  0.000  0.000  0.000 -0.000  0.257
atomic mag. moment =     4.225665
atom    6   Tr[ns(na)] (up, down, total) =   4.97109  0.74496  5.71605
   spin  1
    eigenvalues:
  0.985  0.994  0.994  0.996  1.002
    eigenvectors:
  0.000  0.000  0.000  1.000  0.000
  0.000  0.319  0.681  0.000  0.000
  0.000  0.681  0.319  0.000  0.000
  0.000  0.000  0.000  0.000  1.000
  1.000  0.000  0.000  0.000  0.000
    occupations:
  0.996 -0.000 -0.000  0.000  0.000
 -0.000  0.994 -0.000  0.000  0.000
 -0.000 -0.000  0.994  0.000  0.000
  0.000  0.000  0.000  1.002 -0.000
  0.000  0.000  0.000 -0.000  0.985
   spin  2
    eigenvalues:
  0.064  0.134  0.145  0.145  0.257
    eigenvectors:
  0.000  1.000  0.000  0.000  0.000
  0.000  0.000  0.267  0.733  0.000
  0.000  0.000  0.733  0.267  0.000
  1.000  0.000  0.000  0.000  0.000
  0.000  0.000  0.000  0.000  1.000
    occupations:
  0.134 -0.000 -0.000  0.000  0.000
 -0.000  0.145 -0.000  0.000  0.000
 -0.000 -0.000  0.145  0.000  0.000
  0.000  0.000  0.000  0.064 -0.000
  0.000  0.000  0.000 -0.000  0.257
atomic mag. moment =     4.226125
atom    7   Tr[ns(na)] (up, down, total) =   0.74556  4.97101  5.71657
   spin  1
    eigenvalues:
  0.064  0.134  0.145  0.145  0.257
    eigenvectors:
  0.000  1.000  0.000  0.000  0.000
  0.000  0.000  0.285  0.715  0.000
  0.000  0.000  0.715  0.285  0.000
  1.000  0.000  0.000  0.000  0.000
  0.000  0.000  0.000  0.000  1.000
    occupations:
  0.134 -0.000 -0.000  0.000  0.000
 -0.000  0.145 -0.000  0.000  0.000
 -0.000 -0.000  0.145  0.000  0.000
  0.000  0.000  0.000  0.064 -0.000
  0.000  0.000  0.000 -0.000  0.257
   spin  2
    eigenvalues:
  0.985  0.994  0.994  0.996  1.002
    eigenvectors:
  0.000  0.000  0.000  1.000  0.000
  0.000  0.277  0.723  0.000  0.000
  0.000  0.723  0.277  0.000  0.000
  0.000  0.000  0.000  0.000  1.000
  1.000  0.000  0.000  0.000  0.000
    occupations:
  0.996 -0.000 -0.000  0.000  0.000
 -0.000  0.994 -0.000  0.000  0.000
 -0.000 -0.000  0.994  0.000  0.000
  0.000  0.000  0.000  1.002 -0.000
  0.000  0.000  0.000 -0.000  0.985
atomic mag. moment =    -4.225456
atom    8   Tr[ns(na)] (up, down, total) =   0.74491  4.97112  5.71603
   spin  1
    eigenvalues:
  0.064  0.134  0.145  0.145  0.257
    eigenvectors:
  0.000  1.000  0.000  0.000  0.000
  0.000  0.000  0.269  0.731  0.000
  0.000  0.000  0.731  0.269  0.000
  1.000  0.000  0.000  0.000  0.000
  0.000  0.000  0.000  0.000  1.000
    occupations:
  0.134 -0.000 -0.000  0.000  0.000
 -0.000  0.145 -0.000  0.000  0.000
 -0.000 -0.000  0.145  0.000  0.000
  0.000  0.000  0.000  0.064 -0.000
  0.000  0.000  0.000 -0.000  0.257
   spin  2
    eigenvalues:
  0.985  0.994  0.994  0.996  1.002
    eigenvectors:
  0.000  0.000  0.000  1.000  0.000
  0.000  0.287  0.713  0.000  0.000
  0.000  0.713  0.287  0.000  0.000
  0.000  0.000  0.000  0.000  1.000
  1.000  0.000  0.000  0.000  0.000
    occupations:
  0.996 -0.000 -0.000  0.000  0.000
 -0.000  0.994 -0.000  0.000  0.000
 -0.000 -0.000  0.994  0.000  0.000
  0.000  0.000  0.000  1.002 -0.000
  0.000  0.000  0.000 -0.000  0.985
atomic mag. moment =    -4.226209
N of occupied +U levels =   45.730527
 --- exit write_ns ---

 ------ SPIN UP ------------

          k = 0.0000 0.0000 0.0000 ( 13925 PWs)   bands (ev):

   -66.7119 -66.7118 -66.7115 -66.7114 -62.1311 -62.1310 -62.1306 -62.1298
   -35.4834 -35.4833 -35.4830 -35.4828 -35.4289 -35.4289 -35.4287 -35.4287
   -35.4286 -35.4286 -35.4286 -35.4286 -30.9588 -30.9584 -30.9582 -30.9570
   -30.9494 -30.9494 -30.9493 -30.9493 -30.9489 -30.9489 -30.9483 -30.9483
     5.7776   5.8714   6.0082   6.3681   6.4028   6.9927   7.1063   7.6146
     8.3549   8.4101   8.4112   8.4314   8.4502   8.6997   8.7212   8.7288
     8.8061   8.8494   9.0058   9.0940   9.1254   9.1805   9.2875   9.2961
     9.3533   9.3679   9.4550   9.4901   9.8477   9.8928   9.9044   9.9192
     9.9199   9.9467  10.1291  10.1291  10.1688  10.1741  10.1762  10.1762
    10.1881  10.1881  10.2600  10.2980  10.3351  10.3351  10.3518  10.3518
    10.4996  10.5018  10.5443  10.5652  10.5890  10.5890  10.5919  10.5919
    10.6062  10.6062  10.6083  10.6083  10.6093  10.6630  10.6978  10.6978
    10.7291  10.7291  10.9374  10.9534  10.9534  11.0463  11.0463  11.0505
    11.0858  11.1116  11.1678  11.2482  11.2794  11.2955  11.3592  11.3592
    11.5273  11.5273  11.6324  11.6675  11.7260  11.7466  11.7544  11.7657
    11.7962  11.7962  11.9584  11.9584  12.0269  12.0957  12.0957  12.1008
    12.1030  12.1048  12.1799  12.2410  12.5561  12.5561  12.5753  12.5753
    12.6810  12.6883  12.8198  12.9296  12.9945  12.9959  13.1969  13.6471
    13.9042  14.5312  15.4742  15.9536  16.8156  16.8156  16.8215  16.8215
    16.9883  16.9886  17.0423  17.0426  17.1070  17.1070  17.1178  17.1178
    17.1334  17.1336  17.1865  17.1867  17.5194  17.5438  17.6044  17.6251
    18.6233  19.4610  19.9033  20.1048  20.1048  20.4139  20.4139  20.5933
    20.5933  21.4982

[...]

          k =-0.5000-0.5000 0.0000 ( 13964 PWs)   bands (ev):

[...]

 ------ SPIN DOWN ----------

[...]

          k = 0.3750-0.5000-0.0484 ( 13940 PWs)   bands (ev):

[...]

          k =-0.5000-0.5000-0.0484 ( 13992 PWs)   bands (ev):

   -66.7109 -66.7107 -66.7102 -66.7093 -62.1295 -62.1294 -62.1292 -62.1291
   -35.4821 -35.4821 -35.4810 -35.4804 -35.4399 -35.4399 -35.4397 -35.4397
   -35.4394 -35.4394 -35.4385 -35.4385 -30.9627 -30.9627 -30.9626 -30.9626
   -30.9625 -30.9625 -30.9625 -30.9625 -30.9561 -30.9560 -30.9553 -30.9553
     8.1055   8.1057   8.1059   8.1060   8.5105   8.5107   8.5110   8.5111
     8.9453   8.9454   8.9456   8.9456   9.2662   9.2662   9.2662   9.2662
     9.3336   9.3336   9.3339   9.3339   9.3558   9.3558   9.3558   9.3558
     9.5475   9.5475   9.5476   9.5476   9.8560   9.8560   9.8560   9.8560
     9.9323   9.9323   9.9324   9.9324   9.9557   9.9558   9.9562   9.9563
    10.0720  10.0720  10.0721  10.0721  10.2999  10.2999  10.3000  10.3000
    10.6152  10.6153  10.6155  10.6156  10.8769  10.8769  10.8770  10.8770
    11.1370  11.1372  11.1373  11.1374  11.4288  11.4288  11.4292  11.4296
    11.4594  11.4594  11.4594  11.4594  11.4933  11.4934  11.4935  11.4943
    11.9610  11.9611  11.9611  11.9611  11.9865  11.9866  11.9866  11.9867
    12.0528  12.0528  12.0529  12.0529  12.0800  12.0800  12.0800  12.0801
    12.2073  12.2073  12.2073  12.2073  12.3112  12.3112  12.3113  12.3113
    12.3306  12.3307  12.3308  12.3308  13.3962  13.3963  13.3966  13.3967
    13.9415  13.9415  13.9415  13.9415  14.5344  14.5344  14.5345  14.5345
    15.2461  15.2461  15.2462  15.2462  16.6371  16.6371  16.6371  16.6371
    16.6841  16.6842  16.6843  16.6845  16.9687  16.9687  16.9689  16.9690
    17.6094  17.6094  17.6095  17.6095  17.8079  17.8080  17.8081  17.8082
    18.1317  18.1318  18.1320  18.2448  18.2449  18.2449  18.2450  18.7030
    18.7041  18.7041

     the Fermi energy is    15.2346 ev

!    total energy              =  -14694.00895171 Ry
     Harris-Foulkes estimate   =  -14694.00895212 Ry
     estimated scf accuracy    <       0.00000079 Ry

     total all-electron energy =   -626921.604674 Ry

     The total energy is the sum of the following terms:

     one-electron contribution =    -714.58832038 Ry
     hartree contribution      =     656.62337509 Ry
     xc contribution           =    -737.87482441 Ry
     ewald contribution        =   -2196.78933708 Ry
     Hubbard energy            =       0.45400322 Ry
     one-center paw contrib.   =  -11701.83384814 Ry

     total magnetization       =     0.00 Bohr mag/cell
     absolute magnetization    =    37.25 Bohr mag/cell

     convergence has been achieved in  64 iterations

     Writing output data file mnau2.save/

     General routines

     Parallel routines

     Hubbard U routines

      49h

   This run was terminated on:  21: 6:13   7Apr2019

   JOB DONE.