     Program PWSCF v.6.3MaX starts on  7Apr2019 at 21:26:40

     R & G space division:  proc/nbgrp/npool/nimage =      42
     Waiting for input...
     Reading input from standard input

     Current dimensions of program PWSCF are:
     Max number of different atomic species (ntypx) = 10
     Max number of k-points (npk) =  40000
     Max angular momentum in pseudopotentials (lmaxx) =  3

     Atomic positions and unit cell read from directory:
     ./temp.z19/mnau2.save/

               file Mn.pbe-spn-kjpaw_psl.0.3.1.UPF: wavefunction(s)  3P 3D renormalized
               file Mn.pbe-spn-kjpaw_psl.0.3.1.UPF: wavefunction(s)  3P 3D renormalized
               file Au.pbe-dn-kjpaw_psl.0.1.UPF: wavefunction(s)  6S 6P 5D renormalized

     Found symmetry operation: I + (  0.0000  0.0000  0.2500)
     This is a supercell, fractional translations are disabled

     bravais-lattice index     =            0
     lattice parameter (alat)  =       6.4153  a.u.
     unit-cell volume          =    2724.7774 (a.u.)^3
     number of atoms/cell      =           24
     number of atomic types    =            3
     number of electrons       =       296.00
     number of Kohn-Sham states=          178
     kinetic-energy cutoff     =      45.0000  Ry
     charge density cutoff     =     400.0000  Ry
     convergence threshold     =      1.0E-06
     mixing beta               =       0.1000
     number of iterations used =            8  plain     mixing
     Exchange-correlation      = SLA PW PBX PBC ( 1  4  3  4 0 0)

     celldm(1)=   6.415315  celldm(2)=   0.000000  celldm(3)=  10.319937
     celldm(4)=   0.000000  celldm(5)=   0.000000  celldm(6)=   0.000000

     crystal axes: (cart. coord. in units of alat)
               a(1) = (   1.000000   0.000000   0.000000 )
               a(2) = (   0.000000   1.000000   0.000000 )
               a(3) = (   0.000000   0.000000  10.319937 )

     reciprocal axes: (cart. coord. in units 2 pi/alat)
               b(1) = (  1.000000  0.000000  0.000000 )
               b(2) = (  0.000000  1.000000  0.000000 )
               b(3) = (  0.000000  0.000000  0.096900 )

     PseudoPot. # 1 for Mn read from file:
     ./pseudo/Mn.pbe-spn-kjpaw_psl.0.3.1.UPF
     MD5 check sum: 7b43a3fb0e93e198b8dd8488d8cf503e
     Pseudo is Projector augmented-wave + core cor, Zval = 15.0
     Generated using "atomic" code by A. Dal Corso v.5.0.99 svn rev. 10869
     Shape of augmentation charge: PSQ
     Using radial grid of 1187 points,  6 beta functions with:
                l(1) =   0
                l(2) =   0
                l(3) =   1
                l(4) =   1
                l(5) =   2
                l(6) =   2
     Q(r) pseudized with 0 coefficients

     PseudoPot. # 2 for Mn read from file:
     ./pseudo/Mn.pbe-spn-kjpaw_psl.0.3.1.UPF
     MD5 check sum: 7b43a3fb0e93e198b8dd8488d8cf503e
     Pseudo is Projector augmented-wave + core cor, Zval = 15.0
     Generated using "atomic" code by A. Dal Corso v.5.0.99 svn rev. 10869
     Shape of augmentation charge: PSQ
     Using radial grid of 1187 points,  6 beta functions with:
                l(1) =   0
                l(2) =   0
                l(3) =   1
                l(4) =   1
                l(5) =   2
                l(6) =   2
     Q(r) pseudized with 0 coefficients

     PseudoPot. # 3 for Au read from file:
     ./pseudo/Au.pbe-dn-kjpaw_psl.0.1.UPF
     MD5 check sum: be11e2e8e535ebe2b3ccfb4f88f554cb
     Pseudo is Projector augmented-wave + core cor, Zval = 11.0
     Generated using "atomic" code by A. Dal Corso v.5.0.2 svn rev. 9415
     Shape of augmentation charge: PSQ
     Using radial grid of 1279 points,  6 beta functions with:
                l(1) =   0
                l(2) =   0
                l(3) =   1
                l(4) =   1
                l(5) =   2
                l(6) =   2
     Q(r) pseudized with 0 coefficients

     atomic species   valence    mass     pseudopotential
        Mn1           15.00    54.93800     Mn( 1.00)
        Mn2           15.00    54.93800     Mn( 1.00)
        Au            11.00   196.96600     Au( 1.00)

     Starting magnetic structure
     atomic species   magnetization
        Mn1          0.800
        Mn2         -0.800
        Au           0.000

     Full LDA+U calculation (l_max = 2) with parameters (eV):
     U(  1) =   3.1200   J(  1) =   0.7000   B(  1) =   0.0803
     U(  2) =   3.1200   J(  2) =   0.7000   B(  2) =   0.0803

     16 Sym. Ops., with inversion, found

   Cartesian axes

     site n.     atom                  positions (alat units)
         1           Mn1 tau(   1) = (   0.0000000   0.0000000   0.0000000  )
         2           Mn2 tau(   2) = (   0.5000000   0.5000000   1.2899921  )
         3           Mn1 tau(   3) = (   0.0000000   0.0000000   2.5799843  )
         4           Mn2 tau(   4) = (   0.5000000   0.5000000   3.8699764  )
         5           Mn1 tau(   5) = (   0.0000000   0.0000000   5.1599686  )
         6           Mn2 tau(   6) = (   0.5000000   0.5000000   6.4499607  )
         7           Mn1 tau(   7) = (   0.0000000   0.0000000   7.7399528  )
         8           Mn2 tau(   8) = (   0.5000000   0.5000000   9.0299450  )
         9           Au  tau(   9) = (   0.5000000   0.5000000   0.4127975  )
        10           Au  tau(  10) = (   0.0000000   0.0000000   0.8771947  )
        11           Au  tau(  11) = (   0.0000000   0.0000000   1.7027896  )
        12           Au  tau(  12) = (   0.5000000   0.5000000   2.1671868  )
        13           Au  tau(  13) = (   0.5000000   0.5000000   2.9927818  )
        14           Au  tau(  14) = (   0.0000000   0.0000000   3.4571789  )
        15           Au  tau(  15) = (   0.0000000   0.0000000   4.2827739  )
        16           Au  tau(  16) = (   0.5000000   0.5000000   4.7471711  )
        17           Au  tau(  17) = (   0.5000000   0.5000000   5.5727660  )
        18           Au  tau(  18) = (   0.0000000   0.0000000   6.0371632  )
        19           Au  tau(  19) = (   0.0000000   0.0000000   6.8627582  )
        20           Au  tau(  20) = (   0.5000000   0.5000000   7.3271553  )
        21           Au  tau(  21) = (   0.5000000   0.5000000   8.1527503  )
        22           Au  tau(  22) = (   0.0000000   0.0000000   8.6171475  )
        23           Au  tau(  23) = (   0.0000000   0.0000000   9.4427424  )
        24           Au  tau(  24) = (   0.5000000   0.5000000   9.9071396  )

     number of k points=    30 (tetrahedron method)
                       cart. coord. in units 2pi/alat
        k(    1) = (   0.0000000   0.0000000   0.0000000), wk =   0.0078125
        k(    2) = (   0.0000000   0.0000000  -0.0484499), wk =   0.0078125
        k(    3) = (   0.0000000   0.1250000   0.0000000), wk =   0.0312500
        k(    4) = (   0.0000000   0.1250000  -0.0484499), wk =   0.0312500
        k(    5) = (   0.0000000   0.2500000   0.0000000), wk =   0.0312500
        k(    6) = (   0.0000000   0.2500000  -0.0484499), wk =   0.0312500
        k(    7) = (   0.0000000   0.3750000   0.0000000), wk =   0.0312500
        k(    8) = (   0.0000000   0.3750000  -0.0484499), wk =   0.0312500
        k(    9) = (   0.0000000  -0.5000000   0.0000000), wk =   0.0156250
        k(   10) = (   0.0000000  -0.5000000  -0.0484499), wk =   0.0156250
        k(   11) = (   0.1250000   0.1250000   0.0000000), wk =   0.0312500
        k(   12) = (   0.1250000   0.1250000  -0.0484499), wk =   0.0312500
        k(   13) = (   0.1250000   0.2500000   0.0000000), wk =   0.0625000
        k(   14) = (   0.1250000   0.2500000  -0.0484499), wk =   0.0625000
        k(   15) = (   0.1250000   0.3750000   0.0000000), wk =   0.0625000
        k(   16) = (   0.1250000   0.3750000  -0.0484499), wk =   0.0625000
        k(   17) = (   0.1250000  -0.5000000   0.0000000), wk =   0.0312500
        k(   18) = (   0.1250000  -0.5000000  -0.0484499), wk =   0.0312500
        k(   19) = (   0.2500000   0.2500000   0.0000000), wk =   0.0312500
        k(   20) = (   0.2500000   0.2500000  -0.0484499), wk =   0.0312500
        k(   21) = (   0.2500000   0.3750000   0.0000000), wk =   0.0625000
        k(   22) = (   0.2500000   0.3750000  -0.0484499), wk =   0.0625000
        k(   23) = (   0.2500000  -0.5000000   0.0000000), wk =   0.0312500
        k(   24) = (   0.2500000  -0.5000000  -0.0484499), wk =   0.0312500
        k(   25) = (   0.3750000   0.3750000   0.0000000), wk =   0.0312500
        k(   26) = (   0.3750000   0.3750000  -0.0484499), wk =   0.0312500
        k(   27) = (   0.3750000  -0.5000000   0.0000000), wk =   0.0312500
        k(   28) = (   0.3750000  -0.5000000  -0.0484499), wk =   0.0312500
        k(   29) = (  -0.5000000  -0.5000000   0.0000000), wk =   0.0078125
        k(   30) = (  -0.5000000  -0.5000000  -0.0484499), wk =   0.0078125

     Check: negative/imaginary core charge=   -0.000006    0.000000

     The initial density is read from file :
     ./temp.z19/mnau2.save/charge-density.dat

     Number of +U iterations with fixed ns =  0
     Starting occupations:
 --- enter write_ns ---
 LDA+U parameters:
U(  1) =   3.1200   J(  1) =   0.7000   B(  1) =   0.0803
U(  2) =   3.1200   J(  2) =   0.7000   B(  2) =   0.0803
atom    1   Tr[ns(na)] (up, down, total) =   4.97344  0.71229  5.68574
   spin  1
    eigenvalues:
  0.985  0.994  0.994  0.997  1.003
    eigenvectors:
  0.000  0.000  0.000  1.000  0.000
  0.000  0.867  0.133  0.000  0.000
  0.000  0.133  0.867  0.000  0.000
  0.000  0.000  0.000  0.000  1.000
  1.000  0.000  0.000  0.000  0.000
    occupations:
  0.997 -0.000 -0.000  0.000  0.000
 -0.000  0.994 -0.000  0.000  0.000
 -0.000 -0.000  0.994  0.000  0.000
  0.000  0.000  0.000  1.003 -0.000
  0.000  0.000  0.000 -0.000  0.985
   spin  2
    eigenvalues:
  0.067  0.120  0.143  0.143  0.240
    eigenvectors:
  0.000  1.000  0.000  0.000  0.000
  0.000  0.000  0.535  0.465  0.000
  0.000  0.000  0.465  0.535  0.000
  1.000  0.000  0.000  0.000  0.000
  0.000  0.000  0.000  0.000  1.000
    occupations:
  0.120 -0.000 -0.000  0.000  0.000
 -0.000  0.143 -0.000  0.000  0.000
 -0.000 -0.000  0.143  0.000  0.000
  0.000  0.000  0.000  0.067 -0.000
  0.000  0.000  0.000 -0.000  0.240
atomic mag. moment =     4.261148
atom    2   Tr[ns(na)] (up, down, total) =   0.70671  4.97433  5.68104
   spin  1
    eigenvalues:
  0.067  0.114  0.144  0.144  0.238
    eigenvectors:
  0.000  1.000  0.000  0.000  0.000
  0.000  0.000  0.073  0.927  0.000
  0.000  0.000  0.927  0.073  0.000
  1.000  0.000  0.000  0.000  0.000
  0.000  0.000  0.000  0.000  1.000
    occupations:
  0.114 -0.000 -0.000  0.000  0.000
 -0.000  0.144 -0.000  0.000  0.000
 -0.000 -0.000  0.144  0.000  0.000
  0.000  0.000  0.000  0.067 -0.000
  0.000  0.000  0.000 -0.000  0.238
   spin  2
    eigenvalues:
  0.985  0.994  0.994  0.998  1.003
    eigenvectors:
  0.000  0.000  0.000  1.000  0.000
  0.000  0.712  0.288  0.000  0.000
  0.000  0.288  0.712  0.000  0.000
  0.000  0.000  0.000  0.000  1.000
  1.000  0.000  0.000  0.000  0.000
    occupations:
  0.998 -0.000 -0.000  0.000  0.000
 -0.000  0.994 -0.000  0.000  0.000
 -0.000 -0.000  0.994  0.000  0.000
  0.000  0.000  0.000  1.003 -0.000
[...]
  0.000  0.000  0.687  0.313  0.000
  1.000  0.000  0.000  0.000  0.000
  0.000  0.000  0.000  0.000  1.000
    occupations:
  0.114 -0.000 -0.000  0.000  0.000
 -0.000  0.144 -0.000  0.000  0.000
 -0.000 -0.000  0.144  0.000  0.000
  0.000  0.000  0.000  0.067 -0.000
  0.000  0.000  0.000 -0.000  0.238
   spin  2
    eigenvalues:
  0.985  0.994  0.994  0.998  1.003
    eigenvectors:
  0.000  0.000  0.000  1.000  0.000
  0.000  0.377  0.623  0.000  0.000
  0.000  0.623  0.377  0.000  0.000
  0.000  0.000  0.000  0.000  1.000
  1.000  0.000  0.000  0.000  0.000
    occupations:
  0.998 -0.000 -0.000  0.000  0.000
 -0.000  0.994 -0.000  0.000  0.000
 -0.000 -0.000  0.994  0.000  0.000
  0.000  0.000  0.000  1.003 -0.000
  0.000  0.000  0.000 -0.000  0.985
atomic mag. moment =    -4.267257
N of occupied +U levels =   45.452677
 --- exit write_ns ---

     Threshold (ethr) on eigenvalues was too large:
     Diagonalizing with lowered threshold

     Davidson diagonalization with overlap
     ethr =  5.97E-09,  avg # of iterations =  1.0

     total energy              =  -14693.98922471 Ry
     Harris-Foulkes estimate   =  -14693.98922791 Ry
     estimated scf accuracy    <       0.00001769 Ry

     total magnetization       =    -0.00 Bohr mag/cell
     absolute magnetization    =    37.47 Bohr mag/cell

     iteration #  2     ecut=    45.00 Ry     beta= 0.10
     Davidson diagonalization with overlap
     ethr =  5.98E-09,  avg # of iterations =  2.1

[...]

     total energy              =  -14693.98922813 Ry
     Harris-Foulkes estimate   =  -14693.98922813 Ry
     estimated scf accuracy    <       0.00000549 Ry

[...]

     iteration # 44     ecut=    45.00 Ry     beta= 0.10
     Davidson diagonalization with overlap
     ethr =  3.88E-10,  avg # of iterations =  1.0

     Magnetic moment per site:
     atom:    1    charge:   13.5429    magn:    4.2655    constr:    0.0000
     atom:    2    charge:   13.5421    magn:   -4.2721    constr:    0.0000
     atom:    3    charge:   13.5411    magn:    4.2776    constr:    0.0000
     atom:    4    charge:   13.5420    magn:   -4.2714    constr:    0.0000
     atom:    5    charge:   13.5422    magn:    4.2674    constr:    0.0000
     atom:    6    charge:   13.5420    magn:   -4.2714    constr:    0.0000
     atom:    7    charge:   13.5411    magn:    4.2776    constr:    0.0000
     atom:    8    charge:   13.5421    magn:   -4.2721    constr:    0.0000
     atom:    9    charge:    9.1250    magn:    0.0392    constr:    0.0000
     atom:   10    charge:    9.1252    magn:   -0.0405    constr:    0.0000
     atom:   11    charge:    9.1257    magn:   -0.0377    constr:    0.0000
     atom:   12    charge:    9.1256    magn:    0.0375    constr:    0.0000
     atom:   13    charge:    9.1256    magn:    0.0379    constr:    0.0000
     atom:   14    charge:    9.1259    magn:   -0.0374    constr:    0.0000
     atom:   15    charge:    9.1251    magn:   -0.0395    constr:    0.0000
     atom:   16    charge:    9.1254    magn:    0.0404    constr:    0.0000
     atom:   17    charge:    9.1254    magn:    0.0404    constr:    0.0000
     atom:   18    charge:    9.1251    magn:   -0.0395    constr:    0.0000
     atom:   19    charge:    9.1259    magn:   -0.0374    constr:    0.0000
     atom:   20    charge:    9.1256    magn:    0.0379    constr:    0.0000
     atom:   21    charge:    9.1256    magn:    0.0375    constr:    0.0000
     atom:   22    charge:    9.1257    magn:   -0.0377    constr:    0.0000
     atom:   23    charge:    9.1252    magn:   -0.0405    constr:    0.0000
     atom:   24    charge:    9.1250    magn:    0.0392    constr:    0.0000

     End of self-consistent calculation
 --- enter write_ns ---
 LDA+U parameters:
U(  1) =   3.1200   J(  1) =   0.7000   B(  1) =   0.0803
U(  2) =   3.1200   J(  2) =   0.7000   B(  2) =   0.0803
atom    1   Tr[ns(na)] (up, down, total) =   4.97352  0.71240  5.68591
   spin  1
    eigenvalues:
  0.985  0.994  0.994  0.997  1.003
    eigenvectors:
  0.000  0.000  0.000  1.000  0.000
  0.000  0.352  0.648  0.000  0.000
  0.000  0.648  0.352  0.000  0.000
  0.000  0.000  0.000  0.000  1.000
  1.000  0.000  0.000  0.000  0.000
    occupations:
  0.997 -0.000 -0.000  0.000  0.000
 -0.000  0.994 -0.000  0.000  0.000
 -0.000 -0.000  0.994  0.000  0.000
  0.000  0.000  0.000  1.003 -0.000
  0.000  0.000  0.000 -0.000  0.985
   spin  2
    eigenvalues:
  0.067  0.120  0.143  0.143  0.240
    eigenvectors:
  0.000  1.000  0.000  0.000  0.000
  0.000  0.000  0.317  0.683  0.000
  0.000  0.000  0.683  0.317  0.000
  1.000  0.000  0.000  0.000  0.000
  0.000  0.000  0.000  0.000  1.000
    occupations:
  0.120 -0.000 -0.000  0.000  0.000
 -0.000  0.143 -0.000  0.000  0.000
 -0.000 -0.000  0.143  0.000  0.000
  0.000  0.000  0.000  0.067 -0.000
  0.000  0.000  0.000 -0.000  0.240
atomic mag. moment =     4.261116
atom    2   Tr[ns(na)] (up, down, total) =   0.70719  4.97430  5.68149
   spin  1
    eigenvalues:
  0.067  0.115  0.144  0.144  0.238
    eigenvectors:
  0.000  1.000  0.000  0.000  0.000
  0.000  0.000  0.287  0.713  0.000
  0.000  0.000  0.713  0.287  0.000
  1.000  0.000  0.000  0.000  0.000
  0.000  0.000  0.000  0.000  1.000
    occupations:
  0.115 -0.000 -0.000  0.000  0.000
 -0.000  0.144 -0.000  0.000  0.000
 -0.000 -0.000  0.144  0.000  0.000
  0.000  0.000  0.000  0.067 -0.000
  0.000  0.000  0.000 -0.000  0.238
   spin  2
    eigenvalues:
  0.985  0.994  0.994  0.998  1.003
    eigenvectors:
  0.000  0.000  0.000  1.000  0.000
  0.000  0.290  0.710  0.000  0.000
  0.000  0.710  0.290  0.000  0.000
  0.000  0.000  0.000  0.000  1.000
  1.000  0.000  0.000  0.000  0.000
    occupations:
  0.998 -0.000 -0.000  0.000  0.000
 -0.000  0.994 -0.000  0.000  0.000
 -0.000 -0.000  0.994  0.000  0.000
  0.000  0.000  0.000  1.003 -0.000
  0.000  0.000  0.000 -0.000  0.985
atomic mag. moment =    -4.267107
atom    3   Tr[ns(na)] (up, down, total) =   4.97502  0.70281  5.67783
   spin  1
    eigenvalues:
  0.986  0.994  0.994  0.998  1.003
    eigenvectors:
  0.000  0.000  0.000  1.000  0.000
  0.000  0.294  0.706  0.000  0.000
  0.000  0.706  0.294  0.000  0.000
  0.000  0.000  0.000  0.000  1.000
  1.000  0.000  0.000  0.000  0.000
    occupations:
  0.998 -0.000 -0.000  0.000  0.000
 -0.000  0.994 -0.000  0.000  0.000
 -0.000 -0.000  0.994  0.000  0.000
  0.000  0.000  0.000  1.003 -0.000
  0.000  0.000  0.000 -0.000  0.986
   spin  2
    eigenvalues:
  0.067  0.110  0.145  0.145  0.236
    eigenvectors:
  0.000  1.000  0.000  0.000  0.000
  0.000  0.000  0.352  0.648  0.000
  0.000  0.000  0.648  0.352  0.000
  1.000  0.000  0.000  0.000  0.000
  0.000  0.000  0.000  0.000  1.000
    occupations:
  0.110 -0.000 -0.000  0.000  0.000
 -0.000  0.145 -0.000  0.000  0.000
 -0.000 -0.000  0.145  0.000  0.000
  0.000  0.000  0.000  0.067 -0.000
  0.000  0.000  0.000 -0.000  0.236
atomic mag. moment =     4.272208
atom    4   Tr[ns(na)] (up, down, total) =   0.70774  4.97420  5.68194
   spin  1
    eigenvalues:
  0.067  0.114  0.144  0.144  0.238
    eigenvectors:
  0.000  1.000  0.000  0.000  0.000
  0.000  0.000  0.337  0.663  0.000
  0.000  0.000  0.663  0.337  0.000
  1.000  0.000  0.000  0.000  0.000
  0.000  0.000  0.000  0.000  1.000
    occupations:
  0.114 -0.000 -0.000  0.000  0.000
 -0.000  0.144 -0.000  0.000  0.000
 -0.000 -0.000  0.144  0.000  0.000
  0.000  0.000  0.000  0.067 -0.000
  0.000  0.000  0.000 -0.000  0.238
   spin  2
    eigenvalues:
  0.985  0.994  0.994  0.998  1.003
    eigenvectors:
  0.000  0.000  0.000  1.000  0.000
  0.000  0.340  0.660  0.000  0.000
  0.000  0.660  0.340  0.000  0.000
  0.000  0.000  0.000  0.000  1.000
  1.000  0.000  0.000  0.000  0.000
    occupations:
  0.998 -0.000 -0.000  0.000  0.000
 -0.000  0.994 -0.000  0.000  0.000
 -0.000 -0.000  0.994  0.000  0.000
  0.000  0.000  0.000  1.003 -0.000
  0.000  0.000  0.000 -0.000  0.985
atomic mag. moment =    -4.266466
atom    5   Tr[ns(na)] (up, down, total) =   4.97365  0.71040  5.68405
   spin  1
    eigenvalues:
  0.985  0.994  0.994  0.997  1.003
    eigenvectors:
  0.000  0.000  0.000  1.000  0.000
  0.000  0.282  0.718  0.000  0.000
  0.000  0.718  0.282  0.000  0.000
  0.000  0.000  0.000  0.000  1.000
  1.000  0.000  0.000  0.000  0.000
    occupations:
  0.997 -0.000 -0.000  0.000  0.000
 -0.000  0.994 -0.000  0.000  0.000
 -0.000 -0.000  0.994  0.000  0.000
  0.000  0.000  0.000  1.003 -0.000
  0.000  0.000  0.000 -0.000  0.985
   spin  2
    eigenvalues:
  0.067  0.119  0.142  0.142  0.241
    eigenvectors:
  0.000  1.000  0.000  0.000  0.000
  0.000  0.000  0.236  0.764  0.000
  0.000  0.000  0.764  0.236  0.000
  1.000  0.000  0.000  0.000  0.000
  0.000  0.000  0.000  0.000  1.000
    occupations:
  0.119 -0.000 -0.000  0.000  0.000
 -0.000  0.142 -0.000  0.000  0.000
 -0.000 -0.000  0.142  0.000  0.000
  0.000  0.000  0.000  0.067 -0.000
  0.000  0.000  0.000 -0.000  0.241
atomic mag. moment =     4.263252
atom    6   Tr[ns(na)] (up, down, total) =   0.70774  4.97420  5.68194
   spin  1
    eigenvalues:
  0.067  0.114  0.144  0.144  0.238
    eigenvectors:
  0.000  1.000  0.000  0.000  0.000
  0.000  0.000  0.364  0.636  0.000
  0.000  0.000  0.636  0.364  0.000
  1.000  0.000  0.000  0.000  0.000
  0.000  0.000  0.000  0.000  1.000
    occupations:
  0.114 -0.000 -0.000  0.000  0.000
 -0.000  0.144 -0.000  0.000  0.000
 -0.000 -0.000  0.144  0.000  0.000
  0.000  0.000  0.000  0.067 -0.000
  0.000  0.000  0.000 -0.000  0.238
   spin  2
    eigenvalues:
  0.985  0.994  0.994  0.998  1.003
    eigenvectors:
  0.000  0.000  0.000  1.000  0.000
  0.000  0.381  0.619  0.000  0.000
  0.000  0.619  0.381  0.000  0.000
  0.000  0.000  0.000  0.000  1.000
  1.000  0.000  0.000  0.000  0.000
    occupations:
  0.998 -0.000 -0.000  0.000  0.000
 -0.000  0.994 -0.000  0.000  0.000
 -0.000 -0.000  0.994  0.000  0.000
  0.000  0.000  0.000  1.003 -0.000
  0.000  0.000  0.000 -0.000  0.985
atomic mag. moment =    -4.266466
atom    7   Tr[ns(na)] (up, down, total) =   4.97502  0.70281  5.67783
   spin  1
    eigenvalues:
  0.986  0.994  0.994  0.998  1.003
    eigenvectors:
  0.000  0.000  0.000  1.000  0.000
  0.000  0.274  0.726  0.000  0.000
  0.000  0.726  0.274  0.000  0.000
  0.000  0.000  0.000  0.000  1.000
  1.000  0.000  0.000  0.000  0.000
    occupations:
  0.998 -0.000 -0.000  0.000  0.000
 -0.000  0.994 -0.000  0.000  0.000
 -0.000 -0.000  0.994  0.000  0.000
  0.000  0.000  0.000  1.003 -0.000
  0.000  0.000  0.000 -0.000  0.986
   spin  2
    eigenvalues:
  0.067  0.110  0.145  0.145  0.236
    eigenvectors:
  0.000  1.000  0.000  0.000  0.000
  0.000  0.000  0.275  0.725  0.000
  0.000  0.000  0.725  0.275  0.000
  1.000  0.000  0.000  0.000  0.000
  0.000  0.000  0.000  0.000  1.000
    occupations:
  0.110 -0.000 -0.000  0.000  0.000
 -0.000  0.145 -0.000  0.000  0.000
 -0.000 -0.000  0.145  0.000  0.000
  0.000  0.000  0.000  0.067 -0.000
  0.000  0.000  0.000 -0.000  0.236
atomic mag. moment =     4.272208
atom    8   Tr[ns(na)] (up, down, total) =   0.70719  4.97430  5.68149
   spin  1
    eigenvalues:
  0.067  0.115  0.144  0.144  0.238
    eigenvectors:
  0.000  1.000  0.000  0.000  0.000
  0.000  0.000  0.347  0.653  0.000
  0.000  0.000  0.653  0.347  0.000
  1.000  0.000  0.000  0.000  0.000
  0.000  0.000  0.000  0.000  1.000
    occupations:
  0.115 -0.000 -0.000  0.000  0.000
 -0.000  0.144 -0.000  0.000  0.000
 -0.000 -0.000  0.144  0.000  0.000
  0.000  0.000  0.000  0.067 -0.000
  0.000  0.000  0.000 -0.000  0.238
   spin  2
    eigenvalues:
  0.985  0.994  0.994  0.998  1.003
    eigenvectors:
  0.000  0.000  0.000  1.000  0.000
  0.000  0.306  0.694  0.000  0.000
  0.000  0.694  0.306  0.000  0.000
  0.000  0.000  0.000  0.000  1.000
  1.000  0.000  0.000  0.000  0.000
    occupations:
  0.998 -0.000 -0.000  0.000  0.000
 -0.000  0.994 -0.000  0.000  0.000
 -0.000 -0.000  0.994  0.000  0.000
  0.000  0.000  0.000  1.003 -0.000
  0.000  0.000  0.000 -0.000  0.985
atomic mag. moment =    -4.267107
N of occupied +U levels =   45.452474
 --- exit write_ns ---

 ------ SPIN UP ------------

          k = 0.0000 0.0000 0.0000 ( 13925 PWs)   bands (ev):

   -66.8107 -66.8107 -66.7976 -66.7971 -62.1812 -62.1812 -62.1798 -62.1798
   -35.5753 -35.5753 -35.5638 -35.5615 -35.5278 -35.5278 -35.5278 -35.5278
   -35.5146 -35.5146 -35.5142 -35.5142 -31.0012 -31.0012 -31.0005 -31.0005
   -31.0005 -31.0005 -31.0004 -31.0004 -30.9989 -30.9989 -30.9989 -30.9989
     5.7876   5.9353   5.9359   6.2791   6.4892   7.0598   7.0615   7.6260
     8.3592   8.4941   8.5054   8.5271   8.5281   8.5530   8.5717   8.5731
     8.7093   8.8993   8.9046   9.0267   9.1948   9.2805   9.2839   9.3206
     9.3233   9.3876   9.4122   9.4682   9.9860  10.0002  10.0039  10.0072
    10.0202  10.1322  10.1457  10.1457  10.1581  10.1582  10.1660  10.1820
    10.1829  10.1968  10.1968  10.2000  10.2000  10.3096  10.3549  10.3549
    10.3621  10.3621  10.5503  10.6060  10.6060  10.6065  10.6065  10.6073
    10.6073  10.6098  10.6101  10.6101  10.6135  10.6286  10.6286  10.6291
    10.6291  10.6829  10.9390  10.9390  11.0279  11.0603  11.0603  11.1528
    11.1568  11.2321  11.2681  11.3333  11.3353  11.4258  11.4258  11.4297
    11.4297  11.4363  11.4370  11.4567  11.4654  11.4906  11.7118  11.7118
    11.8835  11.9279  11.9298  11.9660  12.0929  12.1639  12.1639  12.1782
    12.1822  12.2610  12.3481  12.3481  12.3511  12.3511  12.4669  12.4669
    12.7950  12.8271  12.8311  12.8381  12.8578  13.0290  13.0340  13.3795
    14.2988  15.0441  15.0487  15.7997  16.8732  16.8732  16.9228  16.9228
    16.9229  16.9229  16.9670  16.9672  16.9696  16.9698  16.9772  16.9772
    17.1871  17.1873  17.1874  17.1875  17.6005  17.6129  17.6142  17.6233
    18.6303  19.6884  19.6887  20.1120  20.1120  20.5000  20.5000  20.5011
    20.5011  21.4149

[...]

          k =-0.5000-0.5000 0.0000 ( 13964 PWs)   bands (ev):

[...]

 ------ SPIN DOWN ----------

[...]

          k = 0.3750-0.5000-0.0484 ( 13940 PWs)   bands (ev):

[...]

          k =-0.5000-0.5000-0.0484 ( 13992 PWs)   bands (ev):

   -66.8023 -66.8023 -66.8017 -66.8017 -62.1805 -62.1805 -62.1787 -62.1781
   -35.5668 -35.5668 -35.5661 -35.5661 -35.5318 -35.5318 -35.5318 -35.5318
   -35.5305 -35.5305 -35.5305 -35.5305 -31.0151 -31.0151 -31.0151 -31.0151
   -31.0124 -31.0124 -31.0113 -31.0113 -30.9990 -30.9989 -30.9985 -30.9985
     8.1870   8.1870   8.1899   8.1904   8.3057   8.3066   8.4317   8.4322
     8.9200   8.9202   9.0686   9.0692   9.2824   9.2824   9.2825   9.2825
     9.3137   9.3139   9.3690   9.3690   9.3697   9.3697   9.3768   9.3771
     9.5574   9.5574   9.5577   9.5577   9.8643   9.8643   9.8643   9.8643
     9.8833   9.8840   9.9692   9.9692   9.9693   9.9693   9.9701   9.9701
     9.9702   9.9702  10.0705  10.0707  10.2972  10.2972  10.2974  10.2974
    10.5387  10.5392  10.6697  10.6700  10.8154  10.8154  10.8157  10.8157
    11.1966  11.1976  11.2144  11.2153  11.2295  11.2296  11.3371  11.3371
    11.4203  11.4204  11.4221  11.4222  11.6477  11.6477  11.6477  11.6477
    11.9825  11.9825  11.9834  11.9835  12.0068  12.0088  12.0107  12.0108
    12.0727  12.0727  12.0737  12.0737  12.0992  12.1013  12.1031  12.1031
    12.1829  12.1829  12.1832  12.1832  12.1991  12.1998  12.2222  12.2229
    12.2766  12.2774  12.4146  12.4153  13.4208  13.4214  13.4408  13.4409
    13.9590  13.9590  13.9591  13.9591  14.3274  14.3274  14.3281  14.3281
    15.8800  15.8800  15.8811  15.8811  16.0379  16.0379  16.0379  16.0379
    16.6130  16.6135  16.6892  16.6899  16.8789  16.8791  17.2194  17.2200
    17.7232  17.7232  17.7238  17.7238  17.7882  17.7887  17.9177  17.9182
    17.9776  17.9777  18.0654  18.0654  18.0682  18.0706  18.5714  18.5718
    18.6870  18.6870

     the Fermi energy is    15.3190 ev

!    total energy              =  -14693.98922767 Ry
     Harris-Foulkes estimate   =  -14693.98922817 Ry
     estimated scf accuracy    <       0.00000068 Ry

     total all-electron energy =   -626921.584950 Ry

     The total energy is the sum of the following terms:

     one-electron contribution =    -714.16237213 Ry
     hartree contribution      =     656.31329495 Ry
     xc contribution           =    -737.91842740 Ry
     ewald contribution        =   -2196.78933708 Ry
     Hubbard energy            =       0.43587039 Ry
     one-center paw contrib.   =  -11701.86825640 Ry

     total magnetization       =    -0.00 Bohr mag/cell
     absolute magnetization    =    37.47 Bohr mag/cell

     convergence has been achieved in  44 iterations

     Writing output data file mnau2.save/

     General routines

     Parallel routines

     Hubbard U routines

      16h

   This run was terminated on:  22:43:24   7Apr2019

   JOB DONE.