     Program PWSCF v.6.3MaX starts on  7Apr2019 at 15:14:59

     R & G space division:  proc/nbgrp/npool/nimage =      32
     Waiting for input...
     Reading input from standard input

     Current dimensions of program PWSCF are:
     Max number of different atomic species (ntypx) = 10
     Max number of k-points (npk) =  40000
     Max angular momentum in pseudopotentials (lmaxx) =  3
               file Mn.pbe-spn-kjpaw_psl.0.3.1.UPF: wavefunction(s)  3P 3D renormalized
               file Au.pbe-dn-kjpaw_psl.0.1.UPF: wavefunction(s)  6S 6P 5D renormalized

     Found symmetry operation: I + ( -0.5000 -0.5000  0.1250)
     This is a supercell, fractional translations are disabled

     bravais-lattice index     =            0
     lattice parameter (alat)  =       6.4153  a.u.
     unit-cell volume          =    2724.7774 (a.u.)^3
     number of atoms/cell      =           24
     number of atomic types    =            2
     number of electrons       =       296.00
     number of Kohn-Sham states=          178
     kinetic-energy cutoff     =      45.0000  Ry
     charge density cutoff     =     400.0000  Ry
     convergence threshold     =      1.0E-06
     mixing beta               =       0.1000
     number of iterations used =            8  plain     mixing
     Exchange-correlation      = SLA PW PBX PBC ( 1  4  3  4 0 0)

     celldm(1)=   6.415315  celldm(2)=   0.000000  celldm(3)=   0.000000
     celldm(4)=   0.000000  celldm(5)=   0.000000  celldm(6)=   0.000000

     crystal axes: (cart. coord. in units of alat)
               a(1) = (   1.000000   0.000000   0.000000 )
               a(2) = (   0.000000   1.000000   0.000000 )
               a(3) = (   0.000000   0.000000  10.319937 )

     reciprocal axes: (cart. coord. in units 2 pi/alat)
               b(1) = (  1.000000  0.000000  0.000000 )
               b(2) = (  0.000000  1.000000  0.000000 )
               b(3) = (  0.000000  0.000000  0.096900 )

     PseudoPot. # 1 for Mn read from file:
     ./pseudo/Mn.pbe-spn-kjpaw_psl.0.3.1.UPF
     MD5 check sum: 7b43a3fb0e93e198b8dd8488d8cf503e
     Pseudo is Projector augmented-wave + core cor, Zval = 15.0
     Generated using "atomic" code by A. Dal Corso v.5.0.99 svn rev. 10869
     Shape of augmentation charge: PSQ
     Using radial grid of 1187 points,  6 beta functions with:
                l(1) =   0
                l(2) =   0
                l(3) =   1
                l(4) =   1
                l(5) =   2
                l(6) =   2
     Q(r) pseudized with 0 coefficients

     PseudoPot. # 2 for Au read from file:
     ./pseudo/Au.pbe-dn-kjpaw_psl.0.1.UPF
     MD5 check sum: be11e2e8e535ebe2b3ccfb4f88f554cb
     Pseudo is Projector augmented-wave + core cor, Zval = 11.0
     Generated using "atomic" code by A. Dal Corso v.5.0.2 svn rev. 9415
     Shape of augmentation charge: PSQ
     Using radial grid of 1279 points,  6 beta functions with:
                l(1) =   0
                l(2) =   0
                l(3) =   1
                l(4) =   1
                l(5) =   2
                l(6) =   2
     Q(r) pseudized with 0 coefficients

     atomic species   valence    mass     pseudopotential
        Mn            15.00    54.93800     Mn( 1.00)
        Au            11.00   196.96600     Au( 1.00)

     Starting magnetic structure
     atomic species   magnetization
        Mn           0.800
        Au           0.000

     Full LDA+U calculation (l_max = 2) with parameters (eV):
     U(  1) =   3.1200   J(  1) =   0.7000   B(  1) =   0.0803

     16 Sym. Ops., with inversion, found

   Cartesian axes

     site n.     atom                  positions (alat units)
         1           Mn  tau(   1) = (   0.0000000   0.0000000   0.0000000  )
         2           Mn  tau(   2) = (   0.5000000   0.5000000   1.2899921  )
         3           Mn  tau(   3) = (   0.0000000   0.0000000   2.5799843  )
         4           Mn  tau(   4) = (   0.5000000   0.5000000   3.8699764  )
         5           Mn  tau(   5) = (   0.0000000   0.0000000   5.1599686  )
         6           Mn  tau(   6) = (   0.5000000   0.5000000   6.4499607  )
         7           Mn  tau(   7) = (   0.0000000   0.0000000   7.7399528  )
         8           Mn  tau(   8) = (   0.5000000   0.5000000   9.0299450  )
         9           Au  tau(   9) = (   0.5000000   0.5000000   0.4127975  )
        10           Au  tau(  10) = (   0.0000000   0.0000000   0.8771947  )
        11           Au  tau(  11) = (   0.0000000   0.0000000   1.7027896  )
        12           Au  tau(  12) = (   0.5000000   0.5000000   2.1671868  )
        13           Au  tau(  13) = (   0.5000000   0.5000000   2.9927818  )
        14           Au  tau(  14) = (   0.0000000   0.0000000   3.4571789  )
        15           Au  tau(  15) = (   0.0000000   0.0000000   4.2827739  )
        16           Au  tau(  16) = (   0.5000000   0.5000000   4.7471711  )
        17           Au  tau(  17) = (   0.5000000   0.5000000   5.5727660  )
        18           Au  tau(  18) = (   0.0000000   0.0000000   6.0371632  )
        19           Au  tau(  19) = (   0.0000000   0.0000000   6.8627582  )
        20           Au  tau(  20) = (   0.5000000   0.5000000   7.3271553  )
        21           Au  tau(  21) = (   0.5000000   0.5000000   8.1527503  )
        22           Au  tau(  22) = (   0.0000000   0.0000000   8.6171475  )
        23           Au  tau(  23) = (   0.0000000   0.0000000   9.4427424  )
        24           Au  tau(  24) = (   0.5000000   0.5000000   9.9071396  )

     number of k points=    30 (tetrahedron method)
                       cart. coord. in units 2pi/alat
        k(    1) = (   0.0000000   0.0000000   0.0000000), wk =   0.0078125
        k(    2) = (   0.0000000   0.0000000  -0.0484499), wk =   0.0078125
        k(    3) = (   0.0000000   0.1250000   0.0000000), wk =   0.0312500
        k(    4) = (   0.0000000   0.1250000  -0.0484499), wk =   0.0312500
        k(    5) = (   0.0000000   0.2500000   0.0000000), wk =   0.0312500
        k(    6) = (   0.0000000   0.2500000  -0.0484499), wk =   0.0312500
        k(    7) = (   0.0000000   0.3750000   0.0000000), wk =   0.0312500
        k(    8) = (   0.0000000   0.3750000  -0.0484499), wk =   0.0312500
        k(    9) = (   0.0000000  -0.5000000   0.0000000), wk =   0.0156250
        k(   10) = (   0.0000000  -0.5000000  -0.0484499), wk =   0.0156250
        k(   11) = (   0.1250000   0.1250000   0.0000000), wk =   0.0312500
        k(   12) = (   0.1250000   0.1250000  -0.0484499), wk =   0.0312500
        k(   13) = (   0.1250000   0.2500000   0.0000000), wk =   0.0625000
        k(   14) = (   0.1250000   0.2500000  -0.0484499), wk =   0.0625000
        k(   15) = (   0.1250000   0.3750000   0.0000000), wk =   0.0625000
        k(   16) = (   0.1250000   0.3750000  -0.0484499), wk =   0.0625000
        k(   17) = (   0.1250000  -0.5000000   0.0000000), wk =   0.0312500
        k(   18) = (   0.1250000  -0.5000000  -0.0484499), wk =   0.0312500
        k(   19) = (   0.2500000   0.2500000   0.0000000), wk =   0.0312500
        k(   20) = (   0.2500000   0.2500000  -0.0484499), wk =   0.0312500
        k(   21) = (   0.2500000   0.3750000   0.0000000), wk =   0.0625000
        k(   22) = (   0.2500000   0.3750000  -0.0484499), wk =   0.0625000
        k(   23) = (   0.2500000  -0.5000000   0.0000000), wk =   0.0312500
        k(   24) = (   0.2500000  -0.5000000  -0.0484499), wk =   0.0312500
        k(   25) = (   0.3750000   0.3750000   0.0000000), wk =   0.0312500
        k(   26) = (   0.3750000   0.3750000  -0.0484499), wk =   0.0312500
        k(   27) = (   0.3750000  -0.5000000   0.0000000), wk =   0.0312500
        k(   28) = (   0.3750000  -0.5000000  -0.0484499), wk =   0.0312500
        k(   29) = (  -0.5000000  -0.5000000   0.0000000), wk =   0.0078125
        k(   30) = (  -0.5000000  -0.5000000  -0.0484499), wk =   0.0078125

     Check: negative/imaginary core charge=   -0.000006    0.000000

     Initial potential from superposition of free atoms

     starting charge  295.99426, renormalised to  296.00000
     Number of +U iterations with fixed ns =  0
     Starting occupations:
 --- enter write_ns ---
 LDA+U parameters:
U(  1) =   3.1200   J(  1) =   0.7000   B(  1) =   0.0803
atom    1   Tr[ns(na)] (up, down, total) =   5.00000  0.00000  5.00000
   spin  1
    eigenvalues:
  1.000  1.000  1.000  1.000  1.000
    eigenvectors:
  1.000  0.000  0.000  0.000  0.000
  0.000  1.000  0.000  0.000  0.000
  0.000  0.000  1.000  0.000  0.000
  0.000  0.000  0.000  1.000  0.000
  0.000  0.000  0.000  0.000  1.000
    occupations:
  1.000  0.000  0.000  0.000  0.000
  0.000  1.000  0.000  0.000  0.000
  0.000  0.000  1.000  0.000  0.000
  0.000  0.000  0.000  1.000  0.000
  0.000  0.000  0.000  0.000  1.000
   spin  2
    eigenvalues:
  0.000  0.000  0.000  0.000  0.000
    eigenvectors:
  1.000  0.000  0.000  0.000  0.000
  0.000  1.000  0.000  0.000  0.000
  0.000  0.000  1.000  0.000  0.000
  0.000  0.000  0.000  1.000  0.000
  0.000  0.000  0.000  0.000  1.000
    occupations:
  0.000  0.000  0.000  0.000  0.000
  0.000  0.000  0.000  0.000  0.000
  0.000  0.000  0.000  0.000  0.000
  0.000  0.000  0.000  0.000  0.000
  0.000  0.000  0.000  0.000  0.000
atomic mag. moment =     5.000000
atom    2   Tr[ns(na)] (up, down, total) =   5.00000  0.00000  5.00000
   spin  1
    eigenvalues:
  1.000  1.000  1.000  1.000  1.000
    eigenvectors:
  1.000  0.000  0.000  0.000  0.000
  0.000  1.000  0.000  0.000  0.000
  0.000  0.000  1.000  0.000  0.000
  0.000  0.000  0.000  1.000  0.000
  0.000  0.000  0.000  0.000  1.000
    occupations:
  1.000  0.000  0.000  0.000  0.000
  0.000  1.000  0.000  0.000  0.000
  0.000  0.000  1.000  0.000  0.000
  0.000  0.000  0.000  1.000  0.000
  0.000  0.000  0.000  0.000  1.000
   spin  2
    eigenvalues:
  0.000  0.000  0.000  0.000  0.000
    eigenvectors:
  1.000  0.000  0.000  0.000  0.000
  0.000  1.000  0.000  0.000  0.000
  0.000  0.000  1.000  0.000  0.000
  0.000  0.000  0.000  1.000  0.000
  0.000  0.000  0.000  0.000  1.000
    occupations:
  0.000  0.000  0.000  0.000  0.000
  0.000  0.000  0.000  0.000  0.000
  0.000  0.000  0.000  0.000  0.000
  0.000  0.000  0.000  0.000  0.000
  0.000  0.000  0.000  0.000  0.000
atomic mag. moment =     5.000000
atom    3   Tr[ns(na)] (up, down, total) =   5.00000  0.00000  5.00000
   spin  1
    eigenvalues:
  1.000  1.000  1.000  1.000  1.000
    eigenvectors:
  1.000  0.000  0.000  0.000  0.000
  0.000  1.000  0.000  0.000  0.000
  0.000  0.000  1.000  0.000  0.000
  0.000  0.000  0.000  1.000  0.000
  0.000  0.000  0.000  0.000  1.000
    occupations:
  1.000  0.000  0.000  0.000  0.000
  0.000  1.000  0.000  0.000  0.000
  0.000  0.000  1.000  0.000  0.000
  0.000  0.000  0.000  1.000  0.000
  0.000  0.000  0.000  0.000  1.000
   spin  2
    eigenvalues:
  0.000  0.000  0.000  0.000  0.000
    eigenvectors:
  1.000  0.000  0.000  0.000  0.000
  0.000  1.000  0.000  0.000  0.000
  0.000  0.000  1.000  0.000  0.000
  0.000  0.000  0.000  1.000  0.000
  0.000  0.000  0.000  0.000  1.000
    occupations:
  0.000  0.000  0.000  0.000  0.000
[...]
atom    8   Tr[ns(na)] (up, down, total) =   5.01751  0.40266  5.42017
   spin  1
    eigenvalues:
  1.003  1.003  1.003  1.004  1.004
    eigenvectors:
  0.000  0.000  0.000  1.000  0.000
  0.000  0.213  0.787  0.000  0.000
  0.000  0.787  0.213  0.000  0.000
  0.000  0.000  0.000  0.000  1.000
  1.000  0.000  0.000  0.000  0.000
    occupations:
  1.004 -0.000 -0.000  0.000  0.000
 -0.000  1.003 -0.000  0.000  0.000
 -0.000 -0.000  1.003  0.000  0.000
  0.000  0.000  0.000  1.004 -0.000
  0.000  0.000  0.000 -0.000  1.003
   spin  2
    eigenvalues:
  0.053  0.073  0.081  0.081  0.115
    eigenvectors:
  0.000  1.000  0.000  0.000  0.000
  0.000  0.000  0.402  0.598  0.000
  0.000  0.000  0.598  0.402  0.000
  1.000  0.000  0.000  0.000  0.000
  0.000  0.000  0.000  0.000  1.000
    occupations:
  0.073 -0.000 -0.000  0.000  0.000
 -0.000  0.081 -0.000  0.000  0.000
 -0.000 -0.000  0.081  0.000  0.000
  0.000  0.000  0.000  0.053 -0.000
  0.000  0.000  0.000 -0.000  0.115
atomic mag. moment =     4.614848
N of occupied +U levels =   43.358994
 --- exit write_ns ---

     total energy              =  -14687.26404086 Ry
     Harris-Foulkes estimate   =  -14685.79828905 Ry
     estimated scf accuracy    <      11.51100737 Ry

     total magnetization       =    40.42 Bohr mag/cell
     absolute magnetization    =    41.46 Bohr mag/cell

     iteration #  2     ecut=    45.00 Ry     beta= 0.10
     Davidson diagonalization with overlap
     ethr =  3.89E-03,  avg # of iterations =  1.0

[...]

     total energy              =  -14694.01159167 Ry
     Harris-Foulkes estimate   =  -14694.01159169 Ry
     estimated scf accuracy    <       0.00000547 Ry

[...]

     iteration # 70     ecut=    45.00 Ry     beta= 0.10
     Davidson diagonalization with overlap
     ethr =  4.46E-10,  avg # of iterations =  1.0

     Magnetic moment per site:
     atom:    1    charge:   13.5548    magn:    4.1858    constr:    0.0000
     atom:    2    charge:   13.5551    magn:    4.1877    constr:    0.0000
     atom:    3    charge:   13.5547    magn:    4.1892    constr:    0.0000
     atom:    4    charge:   13.5546    magn:    4.1896    constr:    0.0000
     atom:    5    charge:   13.5543    magn:    4.1905    constr:    0.0000
     atom:    6    charge:   13.5546    magn:    4.1896    constr:    0.0000
     atom:    7    charge:   13.5547    magn:    4.1892    constr:    0.0000
     atom:    8    charge:   13.5551    magn:    4.1877    constr:    0.0000
     atom:    9    charge:    9.1206    magn:    0.0242    constr:    0.0000
     atom:   10    charge:    9.1207    magn:    0.0232    constr:    0.0000
     atom:   11    charge:    9.1207    magn:    0.0244    constr:    0.0000
     atom:   12    charge:    9.1207    magn:    0.0249    constr:    0.0000
     atom:   13    charge:    9.1206    magn:    0.0248    constr:    0.0000
     atom:   14    charge:    9.1208    magn:    0.0253    constr:    0.0000
     atom:   15    charge:    9.1209    magn:    0.0247    constr:    0.0000
     atom:   16    charge:    9.1207    magn:    0.0242    constr:    0.0000
     atom:   17    charge:    9.1207    magn:    0.0242    constr:    0.0000
     atom:   18    charge:    9.1209    magn:    0.0247    constr:    0.0000
     atom:   19    charge:    9.1208    magn:    0.0253    constr:    0.0000
     atom:   20    charge:    9.1206    magn:    0.0248    constr:    0.0000
     atom:   21    charge:    9.1207    magn:    0.0249    constr:    0.0000
     atom:   22    charge:    9.1207    magn:    0.0244    constr:    0.0000
     atom:   23    charge:    9.1207    magn:    0.0232    constr:    0.0000
     atom:   24    charge:    9.1206    magn:    0.0242    constr:    0.0000

     End of self-consistent calculation
 --- enter write_ns ---
 LDA+U parameters:
U(  1) =   3.1200   J(  1) =   0.7000   B(  1) =   0.0803
atom    1   Tr[ns(na)] (up, down, total) =   4.96783  0.77489  5.74271
   spin  1
    eigenvalues:
  0.984  0.993  0.993  0.996  1.002
    eigenvectors:
  0.000  0.000  0.000  1.000  0.000
  0.000  0.237  0.763  0.000  0.000
  0.000  0.763  0.237  0.000  0.000
  0.000  0.000  0.000  0.000  1.000
  1.000  0.000  0.000  0.000  0.000
    occupations:
  0.996 -0.000 -0.000  0.000  0.000
 -0.000  0.993 -0.000  0.000  0.000
 -0.000 -0.000  0.993  0.000  0.000
  0.000  0.000  0.000  1.002 -0.000
  0.000  0.000  0.000 -0.000  0.984
   spin  2
    eigenvalues:
  0.065  0.145  0.145  0.152  0.269
    eigenvectors:
  0.000  0.000  0.000  1.000  0.000
  0.000  0.310  0.690  0.000  0.000
  0.000  0.690  0.310  0.000  0.000
  1.000  0.000  0.000  0.000  0.000
  0.000  0.000  0.000  0.000  1.000
    occupations:
  0.152 -0.000 -0.000  0.000  0.000
 -0.000  0.145 -0.000  0.000  0.000
 -0.000 -0.000  0.145  0.000  0.000
  0.000  0.000  0.000  0.065 -0.000
  0.000  0.000  0.000 -0.000  0.269
atomic mag. moment =     4.192943
atom    2   Tr[ns(na)] (up, down, total) =   4.96831  0.77395  5.74226
   spin  1
    eigenvalues:
  0.984  0.993  0.993  0.996  1.002
    eigenvectors:
  0.000  0.000  0.000  1.000  0.000
  0.000  0.379  0.621  0.000  0.000
  0.000  0.621  0.379  0.000  0.000
  0.000  0.000  0.000  0.000  1.000
  1.000  0.000  0.000  0.000  0.000
    occupations:
  0.996 -0.000 -0.000  0.000  0.000
 -0.000  0.993 -0.000  0.000  0.000
 -0.000 -0.000  0.993  0.000  0.000
  0.000  0.000  0.000  1.002 -0.000
  0.000  0.000  0.000 -0.000  0.984
   spin  2
    eigenvalues:
  0.065  0.145  0.145  0.151  0.269
    eigenvectors:
  0.000  0.000  0.000  1.000  0.000
  0.000  0.400  0.600  0.000  0.000
  0.000  0.600  0.400  0.000  0.000
  1.000  0.000  0.000  0.000  0.000
  0.000  0.000  0.000  0.000  1.000
    occupations:
  0.151 -0.000 -0.000  0.000  0.000
 -0.000  0.145 -0.000  0.000  0.000
 -0.000 -0.000  0.145  0.000  0.000
  0.000  0.000  0.000  0.065 -0.000
  0.000  0.000  0.000 -0.000  0.269
atomic mag. moment =     4.194360
atom    3   Tr[ns(na)] (up, down, total) =   4.96820  0.77262  5.74082
   spin  1
    eigenvalues:
  0.984  0.993  0.993  0.996  1.002
    eigenvectors:
  0.000  0.000  0.000  1.000  0.000
  0.000  0.234  0.766  0.000  0.000
  0.000  0.766  0.234  0.000  0.000
  0.000  0.000  0.000  0.000  1.000
  1.000  0.000  0.000  0.000  0.000
    occupations:
  0.996 -0.000 -0.000  0.000  0.000
 -0.000  0.993 -0.000  0.000  0.000
 -0.000 -0.000  0.993  0.000  0.000
  0.000  0.000  0.000  1.002 -0.000
  0.000  0.000  0.000 -0.000  0.984
   spin  2
    eigenvalues:
  0.065  0.144  0.144  0.150  0.268
    eigenvectors:
  0.000  0.000  0.000  1.000  0.000
  0.000  0.298  0.702  0.000  0.000
  0.000  0.702  0.298  0.000  0.000
  1.000  0.000  0.000  0.000  0.000
  0.000  0.000  0.000  0.000  1.000
    occupations:
  0.150 -0.000 -0.000  0.000  0.000
 -0.000  0.144 -0.000  0.000  0.000
 -0.000 -0.000  0.144  0.000  0.000
  0.000  0.000  0.000  0.065 -0.000
  0.000  0.000  0.000 -0.000  0.268
atomic mag. moment =     4.195576
atom    4   Tr[ns(na)] (up, down, total) =   4.96828  0.77237  5.74065
   spin  1
    eigenvalues:
  0.984  0.993  0.993  0.996  1.002
    eigenvectors:
  0.000  0.000  0.000  1.000  0.000
  0.000  0.318  0.682  0.000  0.000
  0.000  0.682  0.318  0.000  0.000
  0.000  0.000  0.000  0.000  1.000
  1.000  0.000  0.000  0.000  0.000
    occupations:
  0.996 -0.000 -0.000  0.000  0.000
 -0.000  0.993 -0.000  0.000  0.000
 -0.000 -0.000  0.993  0.000  0.000
  0.000  0.000  0.000  1.002 -0.000
  0.000  0.000  0.000 -0.000  0.984
   spin  2
    eigenvalues:
  0.065  0.145  0.145  0.149  0.268
    eigenvectors:
  0.000  0.000  0.000  1.000  0.000
  0.000  0.335  0.665  0.000  0.000
  0.000  0.665  0.335  0.000  0.000
  1.000  0.000  0.000  0.000  0.000
  0.000  0.000  0.000  0.000  1.000
    occupations:
  0.149 -0.000 -0.000  0.000  0.000
 -0.000  0.145 -0.000  0.000  0.000
 -0.000 -0.000  0.145  0.000  0.000
  0.000  0.000  0.000  0.065 -0.000
  0.000  0.000  0.000 -0.000  0.268
atomic mag. moment =     4.195908
atom    5   Tr[ns(na)] (up, down, total) =   4.96830  0.77126  5.73956
   spin  1
    eigenvalues:
  0.984  0.993  0.993  0.996  1.002
    eigenvectors:
  0.000  0.000  0.000  1.000  0.000
  0.000  0.347  0.653  0.000  0.000
  0.000  0.653  0.347  0.000  0.000
  0.000  0.000  0.000  0.000  1.000
  1.000  0.000  0.000  0.000  0.000
    occupations:
  0.996 -0.000 -0.000  0.000  0.000
 -0.000  0.993 -0.000  0.000  0.000
 -0.000 -0.000  0.993  0.000  0.000
  0.000  0.000  0.000  1.002 -0.000
  0.000  0.000  0.000 -0.000  0.984
   spin  2
    eigenvalues:
  0.065  0.144  0.144  0.149  0.268
    eigenvectors:
  0.000  0.000  0.000  1.000  0.000
  0.000  0.317  0.683  0.000  0.000
  0.000  0.683  0.317  0.000  0.000
  1.000  0.000  0.000  0.000  0.000
  0.000  0.000  0.000  0.000  1.000
    occupations:
  0.149 -0.000 -0.000  0.000  0.000
 -0.000  0.144 -0.000  0.000  0.000
 -0.000 -0.000  0.144  0.000  0.000
  0.000  0.000  0.000  0.065 -0.000
  0.000  0.000  0.000 -0.000  0.268
atomic mag. moment =     4.197033
atom    6   Tr[ns(na)] (up, down, total) =   4.96828  0.77237  5.74065
   spin  1
    eigenvalues:
  0.984  0.993  0.993  0.996  1.002
    eigenvectors:
  0.000  0.000  0.000  1.000  0.000
  0.000  0.274  0.726  0.000  0.000
  0.000  0.726  0.274  0.000  0.000
  0.000  0.000  0.000  0.000  1.000
  1.000  0.000  0.000  0.000  0.000
    occupations:
  0.996 -0.000 -0.000  0.000  0.000
 -0.000  0.993 -0.000  0.000  0.000
 -0.000 -0.000  0.993  0.000  0.000
  0.000  0.000  0.000  1.002 -0.000
  0.000  0.000  0.000 -0.000  0.984
   spin  2
    eigenvalues:
  0.065  0.145  0.145  0.149  0.268
    eigenvectors:
  0.000  0.000  0.000  1.000  0.000
  0.000  0.343  0.657  0.000  0.000
  0.000  0.657  0.343  0.000  0.000
  1.000  0.000  0.000  0.000  0.000
  0.000  0.000  0.000  0.000  1.000
    occupations:
  0.149 -0.000 -0.000  0.000  0.000
 -0.000  0.145 -0.000  0.000  0.000
 -0.000 -0.000  0.145  0.000  0.000
  0.000  0.000  0.000  0.065 -0.000
  0.000  0.000  0.000 -0.000  0.268
atomic mag. moment =     4.195908
atom    7   Tr[ns(na)] (up, down, total) =   4.96820  0.77262  5.74082
   spin  1
    eigenvalues:
  0.984  0.993  0.993  0.996  1.002
    eigenvectors:
  0.000  0.000  0.000  1.000  0.000
  0.000  0.323  0.677  0.000  0.000
  0.000  0.677  0.323  0.000  0.000
  0.000  0.000  0.000  0.000  1.000
  1.000  0.000  0.000  0.000  0.000
    occupations:
  0.996 -0.000 -0.000  0.000  0.000
 -0.000  0.993 -0.000  0.000  0.000
 -0.000 -0.000  0.993  0.000  0.000
  0.000  0.000  0.000  1.002 -0.000
  0.000  0.000  0.000 -0.000  0.984
   spin  2
    eigenvalues:
  0.065  0.144  0.144  0.150  0.268
    eigenvectors:
  0.000  0.000  0.000  1.000  0.000
  0.000  0.317  0.683  0.000  0.000
  0.000  0.683  0.317  0.000  0.000
  1.000  0.000  0.000  0.000  0.000
  0.000  0.000  0.000  0.000  1.000
    occupations:
  0.150 -0.000 -0.000  0.000  0.000
 -0.000  0.144 -0.000  0.000  0.000
 -0.000 -0.000  0.144  0.000  0.000
  0.000  0.000  0.000  0.065 -0.000
  0.000  0.000  0.000 -0.000  0.268
atomic mag. moment =     4.195576
atom    8   Tr[ns(na)] (up, down, total) =   4.96831  0.77395  5.74226
   spin  1
    eigenvalues:
  0.984  0.993  0.993  0.996  1.002
    eigenvectors:
  0.000  0.000  0.000  1.000  0.000
  0.000  0.344  0.656  0.000  0.000
  0.000  0.656  0.344  0.000  0.000
  0.000  0.000  0.000  0.000  1.000
  1.000  0.000  0.000  0.000  0.000
    occupations:
  0.996 -0.000 -0.000  0.000  0.000
 -0.000  0.993 -0.000  0.000  0.000
 -0.000 -0.000  0.993  0.000  0.000
  0.000  0.000  0.000  1.002 -0.000
  0.000  0.000  0.000 -0.000  0.984
   spin  2
    eigenvalues:
  0.065  0.145  0.145  0.151  0.269
    eigenvectors:
  0.000  0.000  0.000  1.000  0.000
  0.000  0.370  0.630  0.000  0.000
  0.000  0.630  0.370  0.000  0.000
  1.000  0.000  0.000  0.000  0.000
  0.000  0.000  0.000  0.000  1.000
    occupations:
  0.151 -0.000 -0.000  0.000  0.000
 -0.000  0.145 -0.000  0.000  0.000
 -0.000 -0.000  0.145  0.000  0.000
  0.000  0.000  0.000  0.065 -0.000
  0.000  0.000  0.000 -0.000  0.269
atomic mag. moment =     4.194360
N of occupied +U levels =   45.929754
 --- exit write_ns ---

 ------ SPIN UP ------------

          k = 0.0000 0.0000 0.0000 ( 13925 PWs)   bands (ev):

   -66.6528 -66.6501 -66.6501 -66.6469 -66.6469 -66.6450 -66.6419 -66.6419
   -35.4252 -35.4220 -35.4220 -35.4187 -35.4187 -35.4166 -35.4133 -35.4133
   -35.3711 -35.3711 -35.3688 -35.3688 -35.3688 -35.3688 -35.3659 -35.3659
   -35.3659 -35.3659 -35.3641 -35.3641 -35.3613 -35.3613 -35.3613 -35.3613
     5.7062   5.8582   5.8584   6.2982   6.2985   6.9710   6.9714   7.6038
     8.1006   8.3088   8.3113   8.3766   8.3767   8.4140   8.4142   8.5758
     8.5761   8.7219   8.7222   8.7572   8.7574   8.8931   8.8934   9.1314
     9.1318   9.2636   9.3613   9.4066   9.4068   9.4194   9.6403   9.6854
     9.6855   9.8005   9.8005   9.8408   9.8944   9.8944  10.0521  10.0521
    10.1139  10.1139  10.1638  10.1638  10.1638  10.1638  10.3044  10.3047
    10.3176  10.3182  10.3218  10.3218  10.3219  10.3219  10.5674  10.5674
    10.5854  10.5854  10.5856  10.5856  10.6026  10.6026  10.6032  10.6032
    10.6316  10.6416  10.6871  10.6871  10.6886  10.6886  10.7341  10.7341
    10.7898  10.7898  10.7906  10.7906  10.8286  10.8288  11.0245  11.0245
    11.0270  11.0271  11.1315  11.1495  11.1495  11.2244  11.2248  11.2318
    11.3769  11.4496  11.4501  11.4907  11.4913  11.6068  11.6068  11.6071
    11.6071  11.7028  11.7031  11.8746  11.8747  11.8913  11.8919  11.9920
    11.9925  12.1702  12.1704  12.1710  12.1710  12.1715  12.1715  12.2163
    12.2302  12.2403  12.3462  12.6323  12.6326  12.6457  12.6457  12.6459
    12.6459  12.8023  12.8396  12.8396  12.8952  12.8954  13.0613  13.0615
    13.1181  13.3196  13.3197  14.2858  14.2859  15.6196  15.6198  17.1266
    17.5274  19.2970  19.2973  19.9758  19.9758  20.3265  20.3265  20.3266
    20.3266  21.2703

[...]

          k =-0.5000-0.5000 0.0000 ( 13964 PWs)   bands (ev):

[...]

 ------ SPIN DOWN ----------

[...]

          k = 0.3750-0.5000-0.0484 ( 13940 PWs)   bands (ev):

[...]

          k =-0.5000-0.5000-0.0484 ( 13992 PWs)   bands (ev):

   -62.1007 -62.0994 -62.0994 -62.0975 -62.0972 -62.0972 -62.0929 -62.0929
   -30.9345 -30.9345 -30.9330 -30.9330 -30.9330 -30.9330 -30.9313 -30.9313
   -30.9310 -30.9310 -30.9310 -30.9310 -30.9295 -30.9289 -30.9289 -30.9270
   -30.9270 -30.9270 -30.9270 -30.9266 -30.9262 -30.9262 -30.9219 -30.9219
     8.5088   8.5092   8.5094   8.5102   8.6954   8.6955   8.6957   8.6964
     9.0748   9.0757   9.0757   9.0760   9.2759   9.2759   9.2766   9.2766
     9.3722   9.3730   9.3733   9.3736   9.3752   9.3752   9.3755   9.3755
     9.5739   9.5739   9.5746   9.5746   9.8711   9.8711   9.8715   9.8715
    10.2727  10.2727  10.2729  10.2729  10.5587  10.5588  10.5588  10.5598
    10.6714  10.6716  10.6717  10.6725  10.7405  10.7405  10.7409  10.7409
    11.2331  11.2331  11.2338  11.2338  11.6049  11.6049  11.6052  11.6052
    11.9640  11.9641  11.9654  11.9655  11.9658  11.9658  11.9662  11.9662
    12.0562  12.0563  12.0575  12.0577  12.0580  12.0580  12.0584  12.0584
    12.1851  12.1859  12.1866  12.1869  12.2091  12.2098  12.2105  12.2108
    13.3610  13.3614  13.3616  13.3624  13.3835  13.3839  13.3841  13.3849
    14.0179  14.0179  14.0188  14.0188  14.3251  14.3251  14.3259  14.3259
    14.6477  14.6477  14.6478  14.6478  14.8261  14.8261  14.8270  14.8270
    16.7396  16.7418  16.7422  16.7423  16.9422  16.9443  16.9449  16.9453
    17.0729  17.0729  17.0752  17.0752  17.4247  17.4247  17.4254  17.4254
    17.8659  17.8663  17.8668  17.8668  18.1263  18.1263  18.1270  18.1270
    18.1561  18.1575  18.1575  18.1584  18.1596  18.1596  18.1622  18.1622
    18.4340  18.4347  18.4348  18.4352  18.8778  18.8781  18.8781  18.8794
    19.0185  19.0193

     the Fermi energy is    15.1893 ev

!    total energy              =  -14694.01159123 Ry
     Harris-Foulkes estimate   =  -14694.01159175 Ry
     estimated scf accuracy    <       0.00000088 Ry

     total all-electron energy =   -626921.607313 Ry

     The total energy is the sum of the following terms:

     one-electron contribution =    -714.88426348 Ry
     hartree contribution      =     656.84372273 Ry
     xc contribution           =    -737.83834838 Ry
     ewald contribution        =   -2196.78933708 Ry
     Hubbard energy            =       0.46796181 Ry
     one-center paw contrib.   =  -11701.81132683 Ry

     total magnetization       =    34.17 Bohr mag/cell
     absolute magnetization    =    36.85 Bohr mag/cell

     convergence has been achieved in  70 iterations

     Writing output data file mnau2.save/

     General routines

     Parallel routines

     Hubbard U routines

      52h

   This run was terminated on:  17: 7:14   7Apr2019

   JOB DONE.