     Program PWSCF v.6.3MaX starts on  6Apr2019 at 21: 2:29

     R & G space division:  proc/nbgrp/npool/nimage =      16
     Waiting for input...
     Reading input from standard input

     Current dimensions of program PWSCF are:
     Max number of different atomic species (ntypx) = 10
     Max number of k-points (npk) =  40000
     Max angular momentum in pseudopotentials (lmaxx) =  3
               file Mn.pbe-spn-kjpaw_psl.0.3.1.UPF: wavefunction(s)  3P 3D renormalized
               file Mn.pbe-spn-kjpaw_psl.0.3.1.UPF: wavefunction(s)  3P 3D renormalized
               file Au.pbe-dn-kjpaw_psl.0.1.UPF: wavefunction(s)  6S 6P 5D renormalized

     bravais-lattice index     =            0
     lattice parameter (alat)  =       6.4153  a.u.
     unit-cell volume          =    2724.7774 (a.u.)^3
     number of atoms/cell      =           24
     number of atomic types    =            3
     number of electrons       =       296.00
     number of Kohn-Sham states=          178
     kinetic-energy cutoff     =      45.0000  Ry
     charge density cutoff     =     400.0000  Ry
     convergence threshold     =      1.0E-06
     mixing beta               =       0.1000
     number of iterations used =            8  plain     mixing
     Exchange-correlation      = SLA PW PBX PBC ( 1  4  3  4 0 0)

     celldm(1)=   6.415315  celldm(2)=   0.000000  celldm(3)=   0.000000
     celldm(4)=   0.000000  celldm(5)=   0.000000  celldm(6)=   0.000000

     crystal axes: (cart. coord. in units of alat)
               a(1) = (   1.000000   0.000000   0.000000 )
               a(2) = (   0.000000   1.000000   0.000000 )
               a(3) = (   0.000000   0.000000  10.319937 )

     reciprocal axes: (cart. coord. in units 2 pi/alat)
               b(1) = (  1.000000  0.000000  0.000000 )
               b(2) = (  0.000000  1.000000  0.000000 )
               b(3) = (  0.000000  0.000000  0.096900 )

     PseudoPot. # 1 for Mn read from file:
     ./pseudo/Mn.pbe-spn-kjpaw_psl.0.3.1.UPF
     MD5 check sum: 7b43a3fb0e93e198b8dd8488d8cf503e
     Pseudo is Projector augmented-wave + core cor, Zval = 15.0
     Generated using "atomic" code by A. Dal Corso v.5.0.99 svn rev. 10869
     Shape of augmentation charge: PSQ
     Using radial grid of 1187 points,  6 beta functions with:
                l(1) =   0
                l(2) =   0
                l(3) =   1
                l(4) =   1
                l(5) =   2
                l(6) =   2
     Q(r) pseudized with 0 coefficients

     PseudoPot. # 2 for Mn read from file:
     ./pseudo/Mn.pbe-spn-kjpaw_psl.0.3.1.UPF
     MD5 check sum: 7b43a3fb0e93e198b8dd8488d8cf503e
     Pseudo is Projector augmented-wave + core cor, Zval = 15.0
     Generated using "atomic" code by A. Dal Corso v.5.0.99 svn rev. 10869
     Shape of augmentation charge: PSQ
     Using radial grid of 1187 points,  6 beta functions with:
                l(1) =   0
                l(2) =   0
                l(3) =   1
                l(4) =   1
                l(5) =   2
                l(6) =   2
     Q(r) pseudized with 0 coefficients

     PseudoPot. # 3 for Au read from file:
     ./pseudo/Au.pbe-dn-kjpaw_psl.0.1.UPF
     MD5 check sum: be11e2e8e535ebe2b3ccfb4f88f554cb
     Pseudo is Projector augmented-wave + core cor, Zval = 11.0
     Generated using "atomic" code by A. Dal Corso v.5.0.2 svn rev. 9415
     Shape of augmentation charge: PSQ
     Using radial grid of 1279 points,  6 beta functions with:
                l(1) =   0
                l(2) =   0
                l(3) =   1
                l(4) =   1
                l(5) =   2
                l(6) =   2
     Q(r) pseudized with 0 coefficients

     atomic species   valence    mass     pseudopotential
        Mn1           15.00    54.93800     Mn( 1.00)
        Mn2           15.00    54.93800     Mn( 1.00)
        Au            11.00   196.96600     Au( 1.00)

     Starting magnetic structure
     atomic species   magnetization
        Mn1          0.800
        Mn2         -0.800
        Au           0.000

     Full LDA+U calculation (l_max = 2) with parameters (eV):
     U(  1) =   3.1200   J(  1) =   0.7000   B(  1) =   0.0803
     U(  2) =   3.1200   J(  2) =   0.7000   B(  2) =   0.0803

     16 Sym. Ops., with inversion, found ( 8 have fractional translation)

   Cartesian axes

     site n.     atom                  positions (alat units)
         1           Mn1 tau(   1) = (   0.0000000   0.0000000   0.0000000  )
         2           Mn1 tau(   2) = (   0.5000000   0.5000000   1.2899921  )
         3           Mn1 tau(   3) = (   0.0000000   0.0000000   2.5799843  )
         4           Mn1 tau(   4) = (   0.5000000   0.5000000   3.8699764  )
         5           Mn1 tau(   5) = (   0.0000000   0.0000000   5.1599686  )
         6           Mn1 tau(   6) = (   0.5000000   0.5000000   6.4499607  )
         7           Mn1 tau(   7) = (   0.0000000   0.0000000   7.7399528  )
         8           Mn2 tau(   8) = (   0.5000000   0.5000000   9.0299450  )
         9           Au  tau(   9) = (   0.5000000   0.5000000   0.4127975  )
        10           Au  tau(  10) = (   0.0000000   0.0000000   0.8771947  )
        11           Au  tau(  11) = (   0.0000000   0.0000000   1.7027896  )
        12           Au  tau(  12) = (   0.5000000   0.5000000   2.1671868  )
        13           Au  tau(  13) = (   0.5000000   0.5000000   2.9927818  )
        14           Au  tau(  14) = (   0.0000000   0.0000000   3.4571789  )
        15           Au  tau(  15) = (   0.0000000   0.0000000   4.2827739  )
        16           Au  tau(  16) = (   0.5000000   0.5000000   4.7471711  )
        17           Au  tau(  17) = (   0.5000000   0.5000000   5.5727660  )
        18           Au  tau(  18) = (   0.0000000   0.0000000   6.0371632  )
        19           Au  tau(  19) = (   0.0000000   0.0000000   6.8627582  )
        20           Au  tau(  20) = (   0.5000000   0.5000000   7.3271553  )
        21           Au  tau(  21) = (   0.5000000   0.5000000   8.1527503  )
        22           Au  tau(  22) = (   0.0000000   0.0000000   8.6171475  )
        23           Au  tau(  23) = (   0.0000000   0.0000000   9.4427424  )
        24           Au  tau(  24) = (   0.5000000   0.5000000   9.9071396  )

     number of k points=    30 (tetrahedron method)
                       cart. coord. in units 2pi/alat
        k(    1) = (   0.0000000   0.0000000   0.0000000), wk =   0.0078125
        k(    2) = (   0.0000000   0.0000000  -0.0484499), wk =   0.0078125
        k(    3) = (   0.0000000   0.1250000   0.0000000), wk =   0.0312500
        k(    4) = (   0.0000000   0.1250000  -0.0484499), wk =   0.0312500
        k(    5) = (   0.0000000   0.2500000   0.0000000), wk =   0.0312500
        k(    6) = (   0.0000000   0.2500000  -0.0484499), wk =   0.0312500
        k(    7) = (   0.0000000   0.3750000   0.0000000), wk =   0.0312500
        k(    8) = (   0.0000000   0.3750000  -0.0484499), wk =   0.0312500
        k(    9) = (   0.0000000  -0.5000000   0.0000000), wk =   0.0156250
        k(   10) = (   0.0000000  -0.5000000  -0.0484499), wk =   0.0156250
        k(   11) = (   0.1250000   0.1250000   0.0000000), wk =   0.0312500
        k(   12) = (   0.1250000   0.1250000  -0.0484499), wk =   0.0312500
        k(   13) = (   0.1250000   0.2500000   0.0000000), wk =   0.0625000
        k(   14) = (   0.1250000   0.2500000  -0.0484499), wk =   0.0625000
        k(   15) = (   0.1250000   0.3750000   0.0000000), wk =   0.0625000
        k(   16) = (   0.1250000   0.3750000  -0.0484499), wk =   0.0625000
        k(   17) = (   0.1250000  -0.5000000   0.0000000), wk =   0.0312500
        k(   18) = (   0.1250000  -0.5000000  -0.0484499), wk =   0.0312500
        k(   19) = (   0.2500000   0.2500000   0.0000000), wk =   0.0312500
        k(   20) = (   0.2500000   0.2500000  -0.0484499), wk =   0.0312500
        k(   21) = (   0.2500000   0.3750000   0.0000000), wk =   0.0625000
        k(   22) = (   0.2500000   0.3750000  -0.0484499), wk =   0.0625000
        k(   23) = (   0.2500000  -0.5000000   0.0000000), wk =   0.0312500
        k(   24) = (   0.2500000  -0.5000000  -0.0484499), wk =   0.0312500
        k(   25) = (   0.3750000   0.3750000   0.0000000), wk =   0.0312500
        k(   26) = (   0.3750000   0.3750000  -0.0484499), wk =   0.0312500
        k(   27) = (   0.3750000  -0.5000000   0.0000000), wk =   0.0312500
        k(   28) = (   0.3750000  -0.5000000  -0.0484499), wk =   0.0312500
        k(   29) = (  -0.5000000  -0.5000000   0.0000000), wk =   0.0078125
        k(   30) = (  -0.5000000  -0.5000000  -0.0484499), wk =   0.0078125

     Check: negative/imaginary core charge=   -0.000006    0.000000

     Initial potential from superposition of free atoms

     starting charge  295.99426, renormalised to  296.00000
     Number of +U iterations with fixed ns =  0
     Starting occupations:
 --- enter write_ns ---
 LDA+U parameters:
U(  1) =   3.1200   J(  1) =   0.7000   B(  1) =   0.0803
U(  2) =   3.1200   J(  2) =   0.7000   B(  2) =   0.0803
atom    1   Tr[ns(na)] (up, down, total) =   5.00000  0.00000  5.00000
   spin  1
    eigenvalues:
  1.000  1.000  1.000  1.000  1.000
    eigenvectors:
  1.000  0.000  0.000  0.000  0.000
  0.000  1.000  0.000  0.000  0.000
  0.000  0.000  1.000  0.000  0.000
  0.000  0.000  0.000  1.000  0.000
  0.000  0.000  0.000  0.000  1.000
    occupations:
  1.000  0.000  0.000  0.000  0.000
  0.000  1.000  0.000  0.000  0.000
  0.000  0.000  1.000  0.000  0.000
  0.000  0.000  0.000  1.000  0.000
  0.000  0.000  0.000  0.000  1.000
   spin  2
    eigenvalues:
  0.000  0.000  0.000  0.000  0.000
    eigenvectors:
  1.000  0.000  0.000  0.000  0.000
  0.000  1.000  0.000  0.000  0.000
  0.000  0.000  1.000  0.000  0.000
  0.000  0.000  0.000  1.000  0.000
  0.000  0.000  0.000  0.000  1.000
    occupations:
  0.000  0.000  0.000  0.000  0.000
  0.000  0.000  0.000  0.000  0.000
  0.000  0.000  0.000  0.000  0.000
  0.000  0.000  0.000  0.000  0.000
  0.000  0.000  0.000  0.000  0.000
atomic mag. moment =     5.000000
atom    2   Tr[ns(na)] (up, down, total) =   5.00000  0.00000  5.00000
   spin  1
    eigenvalues:
  1.000  1.000  1.000  1.000  1.000
    eigenvectors:
  1.000  0.000  0.000  0.000  0.000
  0.000  1.000  0.000  0.000  0.000
  0.000  0.000  1.000  0.000  0.000
  0.000  0.000  0.000  1.000  0.000
  0.000  0.000  0.000  0.000  1.000
    occupations:
  1.000  0.000  0.000  0.000  0.000
  0.000  1.000  0.000  0.000  0.000
  0.000  0.000  1.000  0.000  0.000
  0.000  0.000  0.000  1.000  0.000
  0.000  0.000  0.000  0.000  1.000
   spin  2
    eigenvalues:
  0.000  0.000  0.000  0.000  0.000
    eigenvectors:
  1.000  0.000  0.000  0.000  0.000
  0.000  1.000  0.000  0.000  0.000
  0.000  0.000  1.000  0.000  0.000
  0.000  0.000  0.000  1.000  0.000
  0.000  0.000  0.000  0.000  1.000
    occupations:
  0.000  0.000  0.000  0.000  0.000
  0.000  0.000  0.000  0.000  0.000
  0.000  0.000  0.000  0.000  0.000
  0.000  0.000  0.000  0.000  0.000
  0.000  0.000  0.000  0.000  0.000
atomic mag. moment =     5.000000
atom    3   Tr[ns(na)] (up, down, total) =   5.00000  0.00000  5.00000
   spin  1
[...]
  1.000  0.000  0.000  0.000  0.000
  0.000  0.000  0.000  0.000  1.000
    occupations:
  0.076 -0.000 -0.000  0.000  0.000
 -0.000  0.080 -0.000  0.000  0.000
 -0.000 -0.000  0.080  0.000  0.000
  0.000  0.000  0.000  0.054 -0.000
  0.000  0.000  0.000 -0.000  0.126
   spin  2
    eigenvalues:
  1.003  1.003  1.003  1.004  1.004
    eigenvectors:
  0.000  0.000  0.000  1.000  0.000
  0.000  0.369  0.631  0.000  0.000
  0.000  0.631  0.369  0.000  0.000
  0.000  0.000  0.000  0.000  1.000
  1.000  0.000  0.000  0.000  0.000
    occupations:
  1.004 -0.000 -0.000  0.000  0.000
 -0.000  1.003 -0.000  0.000  0.000
 -0.000 -0.000  1.003  0.000  0.000
  0.000  0.000  0.000  1.004 -0.000
  0.000  0.000  0.000 -0.000  1.003
atomic mag. moment =    -4.601342
N of occupied +U levels =   43.383882
 --- exit write_ns ---

     total energy              =  -14687.26969402 Ry
     Harris-Foulkes estimate   =  -14685.80776032 Ry
     estimated scf accuracy    <      11.54251259 Ry

     total magnetization       =    30.31 Bohr mag/cell
     absolute magnetization    =    41.54 Bohr mag/cell

     iteration #  2     ecut=    45.00 Ry     beta= 0.10
     Davidson diagonalization with overlap
     ethr =  3.90E-03,  avg # of iterations =  1.0

[...]

     iteration # 14     ecut=    45.00 Ry     beta= 0.10
     Davidson diagonalization with overlap
     c_bands:  1 eigenvalues not converged
     ethr =  2.87E-06,  avg # of iterations =  4.2

[...]

     total energy              =  -14694.00805687 Ry
     Harris-Foulkes estimate   =  -14694.00805556 Ry
     estimated scf accuracy    <       0.00000254 Ry

[...]

     iteration # 24     ecut=    45.00 Ry     beta= 0.10
     Davidson diagonalization with overlap
     ethr =  5.13E-10,  avg # of iterations =  1.9

     Magnetic moment per site:
     atom:    1    charge:   13.5461    magn:    4.2447    constr:    0.0000
     atom:    2    charge:   13.5536    magn:    4.1948    constr:    0.0000
     atom:    3    charge:   13.5547    magn:    4.1897    constr:    0.0000
     atom:    4    charge:   13.5553    magn:    4.1843    constr:    0.0000
     atom:    5    charge:   13.5547    magn:    4.1897    constr:    0.0000
     atom:    6    charge:   13.5536    magn:    4.1948    constr:    0.0000
     atom:    7    charge:   13.5461    magn:    4.2447    constr:    0.0000
     atom:    8    charge:   13.5469    magn:   -4.2382    constr:    0.0000
     atom:    9    charge:    9.1229    magn:    0.0315    constr:    0.0000
     atom:   10    charge:    9.1219    magn:    0.0297    constr:    0.0000
     atom:   11    charge:    9.1208    magn:    0.0284    constr:    0.0000
     atom:   12    charge:    9.1196    magn:    0.0232    constr:    0.0000
     atom:   13    charge:    9.1200    magn:    0.0225    constr:    0.0000
     atom:   14    charge:    9.1210    magn:    0.0250    constr:    0.0000
     atom:   15    charge:    9.1210    magn:    0.0250    constr:    0.0000
     atom:   16    charge:    9.1200    magn:    0.0225    constr:    0.0000
     atom:   17    charge:    9.1196    magn:    0.0232    constr:    0.0000
     atom:   18    charge:    9.1208    magn:    0.0284    constr:    0.0000
     atom:   19    charge:    9.1219    magn:    0.0297    constr:    0.0000
     atom:   20    charge:    9.1229    magn:    0.0315    constr:    0.0000
     atom:   21    charge:    9.1237    magn:    0.0442    constr:    0.0000
     atom:   22    charge:    9.1240    magn:   -0.0398    constr:    0.0000
     atom:   23    charge:    9.1240    magn:   -0.0398    constr:    0.0000
     atom:   24    charge:    9.1237    magn:    0.0442    constr:    0.0000

     End of self-consistent calculation
 --- enter write_ns ---
 LDA+U parameters:
U(  1) =   3.1200   J(  1) =   0.7000   B(  1) =   0.0803
U(  2) =   3.1200   J(  2) =   0.7000   B(  2) =   0.0803
atom    1   Tr[ns(na)] (up, down, total) =   4.97290  0.72859  5.70150
   spin  1
    eigenvalues:
  0.985  0.994  0.994  0.997  1.002
    eigenvectors:
  0.000  0.000  0.000  1.000  0.000
  0.000  0.253  0.747  0.000  0.000
  0.000  0.747  0.253  0.000  0.000
  0.000  0.000  0.000  0.000  1.000
  1.000  0.000  0.000  0.000  0.000
    occupations:
  0.997 -0.000 -0.000  0.000  0.000
 -0.000  0.994 -0.000  0.000  0.000
 -0.000 -0.000  0.994  0.000  0.000
  0.000  0.000  0.000  1.002 -0.000
  0.000  0.000  0.000 -0.000  0.985
   spin  2
    eigenvalues:
  0.066  0.119  0.148  0.148  0.248
    eigenvectors:
  0.000  1.000  0.000  0.000  0.000
  0.000  0.000  0.298  0.702  0.000
  0.000  0.000  0.702  0.298  0.000
  1.000  0.000  0.000  0.000  0.000
  0.000  0.000  0.000  0.000  1.000
    occupations:
  0.119 -0.000 -0.000  0.000  0.000
 -0.000  0.148 -0.000  0.000  0.000
 -0.000 -0.000  0.148  0.000  0.000
  0.000  0.000  0.000  0.066 -0.000
  0.000  0.000  0.000 -0.000  0.248
atomic mag. moment =     4.244315
atom    2   Tr[ns(na)] (up, down, total) =   4.96883  0.76863  5.73746
   spin  1
    eigenvalues:
  0.984  0.993  0.993  0.996  1.002
    eigenvectors:
  0.000  0.000  0.000  1.000  0.000
  0.000  0.288  0.712  0.000  0.000
  0.000  0.712  0.288  0.000  0.000
  0.000  0.000  0.000  0.000  1.000
  1.000  0.000  0.000  0.000  0.000
    occupations:
  0.996 -0.000 -0.000  0.000  0.000
 -0.000  0.993 -0.000  0.000  0.000
 -0.000 -0.000  0.993  0.000  0.000
  0.000  0.000  0.000  1.002 -0.000
  0.000  0.000  0.000 -0.000  0.984
   spin  2
    eigenvalues:
  0.065  0.143  0.146  0.146  0.269
    eigenvectors:
  0.000  1.000  0.000  0.000  0.000
  0.000  0.000  0.279  0.721  0.000
  0.000  0.000  0.721  0.279  0.000
  1.000  0.000  0.000  0.000  0.000
  0.000  0.000  0.000  0.000  1.000
    occupations:
  0.143 -0.000 -0.000  0.000  0.000
 -0.000  0.146 -0.000  0.000  0.000
 -0.000 -0.000  0.146  0.000  0.000
  0.000  0.000  0.000  0.065 -0.000
  0.000  0.000  0.000 -0.000  0.269
atomic mag. moment =     4.200206
atom    3   Tr[ns(na)] (up, down, total) =   4.96827  0.77209  5.74036
   spin  1
    eigenvalues:
  0.984  0.993  0.993  0.997  1.002
    eigenvectors:
  0.000  0.000  0.000  1.000  0.000
  0.000  0.332  0.668  0.000  0.000
  0.000  0.668  0.332  0.000  0.000
  0.000  0.000  0.000  0.000  1.000
  1.000  0.000  0.000  0.000  0.000
    occupations:
  0.997 -0.000 -0.000  0.000  0.000
 -0.000  0.993 -0.000  0.000  0.000
 -0.000 -0.000  0.993  0.000  0.000
  0.000  0.000  0.000  1.002 -0.000
  0.000  0.000  0.000 -0.000  0.984
   spin  2
    eigenvalues:
  0.065  0.144  0.144  0.150  0.269
    eigenvectors:
  0.000  0.000  0.000  1.000  0.000
  0.000  0.391  0.609  0.000  0.000
  0.000  0.609  0.391  0.000  0.000
  1.000  0.000  0.000  0.000  0.000
  0.000  0.000  0.000  0.000  1.000
    occupations:
  0.150 -0.000 -0.000  0.000  0.000
 -0.000  0.144 -0.000  0.000  0.000
 -0.000 -0.000  0.144  0.000  0.000
  0.000  0.000  0.000  0.065 -0.000
  0.000  0.000  0.000 -0.000  0.269
atomic mag. moment =     4.196188
atom    4   Tr[ns(na)] (up, down, total) =   4.96766  0.77589  5.74355
   spin  1
    eigenvalues:
  0.984  0.993  0.993  0.996  1.002
    eigenvectors:
  0.000  0.000  0.000  1.000  0.000
  0.000  0.333  0.667  0.000  0.000
  0.000  0.667  0.333  0.000  0.000
  0.000  0.000  0.000  0.000  1.000
  1.000  0.000  0.000  0.000  0.000
    occupations:
  0.996 -0.000 -0.000  0.000  0.000
 -0.000  0.993 -0.000  0.000  0.000
 -0.000 -0.000  0.993  0.000  0.000
  0.000  0.000  0.000  1.002 -0.000
  0.000  0.000  0.000 -0.000  0.984
   spin  2
    eigenvalues:
  0.065  0.143  0.143  0.154  0.271
    eigenvectors:
  0.000  0.000  0.000  1.000  0.000
  0.000  0.362  0.638  0.000  0.000
  0.000  0.638  0.362  0.000  0.000
  1.000  0.000  0.000  0.000  0.000
  0.000  0.000  0.000  0.000  1.000
    occupations:
  0.154 -0.000 -0.000  0.000  0.000
 -0.000  0.143 -0.000  0.000  0.000
 -0.000 -0.000  0.143  0.000  0.000
  0.000  0.000  0.000  0.065 -0.000
  0.000  0.000  0.000 -0.000  0.271
atomic mag. moment =     4.191765
atom    5   Tr[ns(na)] (up, down, total) =   4.96827  0.77209  5.74036
   spin  1
    eigenvalues:
  0.984  0.993  0.993  0.997  1.002
    eigenvectors:
  0.000  0.000  0.000  1.000  0.000
  0.000  0.292  0.708  0.000  0.000
  0.000  0.708  0.292  0.000  0.000
  0.000  0.000  0.000  0.000  1.000
  1.000  0.000  0.000  0.000  0.000
    occupations:
  0.997 -0.000 -0.000  0.000  0.000
 -0.000  0.993 -0.000  0.000  0.000
 -0.000 -0.000  0.993  0.000  0.000
  0.000  0.000  0.000  1.002 -0.000
  0.000  0.000  0.000 -0.000  0.984
   spin  2
    eigenvalues:
  0.065  0.144  0.144  0.150  0.269
    eigenvectors:
  0.000  0.000  0.000  1.000  0.000
  0.000  0.311  0.689  0.000  0.000
  0.000  0.689  0.311  0.000  0.000
  1.000  0.000  0.000  0.000  0.000
  0.000  0.000  0.000  0.000  1.000
    occupations:
  0.150 -0.000 -0.000  0.000  0.000
 -0.000  0.144 -0.000  0.000  0.000
 -0.000 -0.000  0.144  0.000  0.000
  0.000  0.000  0.000  0.065 -0.000
  0.000  0.000  0.000 -0.000  0.269
atomic mag. moment =     4.196188
atom    6   Tr[ns(na)] (up, down, total) =   4.96883  0.76863  5.73746
   spin  1
    eigenvalues:
  0.984  0.993  0.993  0.996  1.002
    eigenvectors:
  0.000  0.000  0.000  1.000  0.000
  0.000  0.300  0.700  0.000  0.000
  0.000  0.700  0.300  0.000  0.000
  0.000  0.000  0.000  0.000  1.000
  1.000  0.000  0.000  0.000  0.000
    occupations:
  0.996 -0.000 -0.000  0.000  0.000
 -0.000  0.993 -0.000  0.000  0.000
 -0.000 -0.000  0.993  0.000  0.000
  0.000  0.000  0.000  1.002 -0.000
  0.000  0.000  0.000 -0.000  0.984
   spin  2
    eigenvalues:
  0.065  0.143  0.146  0.146  0.269
    eigenvectors:
  0.000  1.000  0.000  0.000  0.000
  0.000  0.000  0.327  0.673  0.000
  0.000  0.000  0.673  0.327  0.000
  1.000  0.000  0.000  0.000  0.000
  0.000  0.000  0.000  0.000  1.000
    occupations:
  0.143 -0.000 -0.000  0.000  0.000
 -0.000  0.146 -0.000  0.000  0.000
 -0.000 -0.000  0.146  0.000  0.000
  0.000  0.000  0.000  0.065 -0.000
  0.000  0.000  0.000 -0.000  0.269
atomic mag. moment =     4.200206
atom    7   Tr[ns(na)] (up, down, total) =   4.97290  0.72859  5.70150
   spin  1
    eigenvalues:
  0.985  0.994  0.994  0.997  1.002
    eigenvectors:
  0.000  0.000  0.000  1.000  0.000
  0.000  0.263  0.737  0.000  0.000
  0.000  0.737  0.263  0.000  0.000
  0.000  0.000  0.000  0.000  1.000
  1.000  0.000  0.000  0.000  0.000
    occupations:
  0.997 -0.000 -0.000  0.000  0.000
 -0.000  0.994 -0.000  0.000  0.000
 -0.000 -0.000  0.994  0.000  0.000
  0.000  0.000  0.000  1.002 -0.000
  0.000  0.000  0.000 -0.000  0.985
   spin  2
    eigenvalues:
  0.066  0.119  0.148  0.148  0.248
    eigenvectors:
  0.000  1.000  0.000  0.000  0.000
  0.000  0.000  0.285  0.715  0.000
  0.000  0.000  0.715  0.285  0.000
  1.000  0.000  0.000  0.000  0.000
  0.000  0.000  0.000  0.000  1.000
    occupations:
  0.119 -0.000 -0.000  0.000  0.000
 -0.000  0.148 -0.000  0.000  0.000
 -0.000 -0.000  0.148  0.000  0.000
  0.000  0.000  0.000  0.066 -0.000
  0.000  0.000  0.000 -0.000  0.248
atomic mag. moment =     4.244315
atom    8   Tr[ns(na)] (up, down, total) =   0.73607  4.96976  5.70583
   spin  1
    eigenvalues:
  0.063  0.126  0.146  0.146  0.254
    eigenvectors:
  0.000  1.000  0.000  0.000  0.000
  0.000  0.000  0.317  0.683  0.000
  0.000  0.000  0.683  0.317  0.000
  1.000  0.000  0.000  0.000  0.000
  0.000  0.000  0.000  0.000  1.000
    occupations:
  0.126 -0.000 -0.000  0.000  0.000
 -0.000  0.146 -0.000  0.000  0.000
 -0.000 -0.000  0.146  0.000  0.000
  0.000  0.000  0.000  0.063 -0.000
  0.000  0.000  0.000 -0.000  0.254
   spin  2
    eigenvalues:
  0.985  0.994  0.994  0.995  1.003
    eigenvectors:
  0.000  0.000  0.000  1.000  0.000
  0.000  0.333  0.667  0.000  0.000
  0.000  0.667  0.333  0.000  0.000
  0.000  0.000  0.000  0.000  1.000
  1.000  0.000  0.000  0.000  0.000
    occupations:
  0.995 -0.000 -0.000  0.000  0.000
 -0.000  0.994 -0.000  0.000  0.000
 -0.000 -0.000  0.994  0.000  0.000
  0.000  0.000  0.000  1.003 -0.000
  0.000  0.000  0.000 -0.000  0.985
atomic mag. moment =    -4.233688
N of occupied +U levels =   45.808016
 --- exit write_ns ---

 ------ SPIN UP ------------

          k = 0.0000 0.0000 0.0000 ( 13925 PWs)   bands (ev):

   -66.8049 -66.8049 -66.6249 -66.6249 -66.6018 -66.5973 -66.5973 -62.2635
   -35.5739 -35.5739 -35.5219 -35.5219 -35.5219 -35.5219 -35.4019 -35.4019
   -35.3743 -35.3696 -35.3696 -35.3409 -35.3409 -35.3409 -35.3409 -35.3206
   -35.3206 -35.3161 -35.3161 -35.3161 -35.3161 -31.0903 -31.0797 -31.0797
     5.7200   5.8665   5.8839   6.2889   6.3446   6.9625   7.0182   7.6087
     8.1579   8.3451   8.3488   8.3797   8.4154   8.4414   8.4765   8.5691
     8.6961   8.7098   8.7627   8.7739   8.8645   8.8947   9.0661   9.1268
     9.2006   9.3668   9.3967   9.4329   9.4719   9.4953   9.6929   9.6978
     9.7985   9.8707   9.8900   9.9434   9.9785  10.0450  10.0675  10.0879
    10.0879  10.1491  10.1780  10.1780  10.1817  10.1817  10.3073  10.3145
    10.3269  10.3269  10.3353  10.3353  10.4443  10.5002  10.5523  10.5523
    10.5570  10.5570  10.5930  10.5930  10.6009  10.6009  10.6369  10.6369
    10.6515  10.6840  10.6840  10.7327  10.7327  10.7819  10.7863  10.7863
    10.8039  10.8039  10.8285  10.9954  11.0246  11.0326  11.0326  11.0721
    11.0721  11.1780  11.1829  11.2143  11.2414  11.3307  11.4438  11.4695
    11.5018  11.5018  11.5018  11.6047  11.6047  11.6103  11.6760  11.6942
    11.8234  11.8752  11.8843  11.9805  12.0116  12.0116  12.0275  12.0903
    12.1457  12.1639  12.1639  12.1905  12.2277  12.2520  12.4578  12.4803
    12.4803  12.6189  12.6607  12.6607  12.7379  12.8062  12.8281  12.8281
    12.8795  12.9859  13.0810  13.1402  13.1411  13.3147  14.0393  14.2845
    15.3000  15.6290  16.7062  16.8391  16.8391  16.9053  17.0496  17.5429
    17.9045  19.3140  19.4767  20.0061  20.0061  20.3535  20.3535  20.3788
    20.3788  21.3013

[...]

          k =-0.5000-0.5000 0.0000 ( 13964 PWs)   bands (ev):

[...]

 ------ SPIN DOWN ----------

[...]

          k = 0.3750-0.5000-0.0484 ( 13940 PWs)   bands (ev):

[...]

          k =-0.5000-0.5000-0.0484 ( 13992 PWs)   bands (ev):

   -66.8500 -62.2034 -62.2034 -62.0692 -62.0692 -62.0556 -62.0463 -62.0463
   -35.6198 -35.5776 -35.5776 -31.0376 -31.0376 -31.0376 -31.0376 -31.0259
   -31.0259 -30.9017 -30.9017 -30.9010 -30.9010 -30.9010 -30.9010 -30.8893
   -30.8893 -30.8852 -30.8802 -30.8802 -30.8802 -30.8802 -30.8753 -30.8753
     8.1540   8.1948   8.5401   8.5464   8.6459   8.6793   8.6847   8.7180
     9.0143   9.0689   9.0735   9.0762   9.2183   9.2183   9.3059   9.3059
     9.3398   9.3635   9.3749   9.3749   9.3863   9.3863   9.3946   9.4010
     9.5740   9.5740   9.5751   9.5751   9.8732   9.8732   9.8743   9.8743
     9.8935   9.8935   9.9039  10.2562  10.2562  10.3063  10.3063  10.5129
    10.5721  10.5956  10.6534  10.6562  10.7059  10.7095  10.7356  10.7356
    10.8058  10.8058  11.1143  11.2342  11.2376  11.2376  11.3532  11.3532
    11.3596  11.6392  11.6392  11.8777  11.9318  11.9329  11.9337  11.9337
    11.9676  12.0038  12.0038  12.0053  12.0078  12.0079  12.0398  12.0402
    12.0971  12.0971  12.0975  12.1003  12.1004  12.1010  12.1724  12.2265
    12.2312  12.2371  12.2452  12.2510  12.2823  13.3526  13.3646  13.3988
    13.4102  13.4125  13.4213  13.4278  13.9184  13.9184  14.0685  14.0685
    14.3012  14.3012  14.4111  14.4111  14.6366  14.6366  14.7563  14.7563
    14.8623  14.8623  15.8685  15.8685  16.5747  16.7563  16.7783  16.8011
    16.8719  16.9766  16.9847  17.0844  17.0943  17.0943  17.2932  17.2932
    17.3810  17.3810  17.7942  17.8455  17.8635  17.9269  17.9746  17.9746
    18.0467  18.0467  18.0646  18.0646  18.1896  18.1947  18.1947  18.2002
    18.2104  18.2104  18.4464  18.4470  18.5202  18.7638  18.8701  18.9033
    18.9801  18.9843

     the Fermi energy is    15.2359 ev

!    total energy              =  -14694.00806455 Ry
     Harris-Foulkes estimate   =  -14694.00805878 Ry
     estimated scf accuracy    <       0.00000075 Ry

     total all-electron energy =   -626921.603786 Ry

     The total energy is the sum of the following terms:

     one-electron contribution =    -714.68112028 Ry
     hartree contribution      =     656.68135858 Ry
     xc contribution           =    -737.85324038 Ry
     ewald contribution        =   -2196.78933708 Ry
     Hubbard energy            =       0.45965075 Ry
     one-center paw contrib.   =  -11701.82537614 Ry

     total magnetization       =    25.80 Bohr mag/cell
     absolute magnetization    =    37.04 Bohr mag/cell

     convergence has been achieved in  24 iterations

     Writing output data file mnau2.save/

     General routines

     Parallel routines

     Hubbard U routines

   This run was terminated on:  21:57:22   6Apr2019

   JOB DONE.