     Program PWSCF v.6.3MaX starts on  6Apr2019 at 21:57:23

     R & G space division:  proc/nbgrp/npool/nimage =      16
     Waiting for input...
     Reading input from standard input

     Current dimensions of program PWSCF are:
     Max number of different atomic species (ntypx) = 10
     Max number of k-points (npk) =  40000
     Max angular momentum in pseudopotentials (lmaxx) =  3
               file Mn.pbe-spn-kjpaw_psl.0.3.1.UPF: wavefunction(s)  3P 3D renormalized
               file Mn.pbe-spn-kjpaw_psl.0.3.1.UPF: wavefunction(s)  3P 3D renormalized
               file Au.pbe-dn-kjpaw_psl.0.1.UPF: wavefunction(s)  6S 6P 5D renormalized

     bravais-lattice index     =            0
     lattice parameter (alat)  =       6.4153  a.u.
     unit-cell volume          =    2724.7774 (a.u.)^3
     number of atoms/cell      =           24
     number of atomic types    =            3
     number of electrons       =       296.00
     number of Kohn-Sham states=          178
     kinetic-energy cutoff     =      45.0000  Ry
     charge density cutoff     =     400.0000  Ry
     convergence threshold     =      1.0E-06
     mixing beta               =       0.1000
     number of iterations used =            8  plain     mixing
     Exchange-correlation      = SLA PW PBX PBC ( 1  4  3  4 0 0)

     celldm(1)=   6.415315  celldm(2)=   0.000000  celldm(3)=   0.000000
     celldm(4)=   0.000000  celldm(5)=   0.000000  celldm(6)=   0.000000

     crystal axes: (cart. coord. in units of alat)
               a(1) = (   1.000000   0.000000   0.000000 )
               a(2) = (   0.000000   1.000000   0.000000 )
               a(3) = (   0.000000   0.000000  10.319937 )

     reciprocal axes: (cart. coord. in units 2 pi/alat)
               b(1) = (  1.000000  0.000000  0.000000 )
               b(2) = (  0.000000  1.000000  0.000000 )
               b(3) = (  0.000000  0.000000  0.096900 )

     PseudoPot. # 1 for Mn read from file:
     ./pseudo/Mn.pbe-spn-kjpaw_psl.0.3.1.UPF
     MD5 check sum: 7b43a3fb0e93e198b8dd8488d8cf503e
     Pseudo is Projector augmented-wave + core cor, Zval = 15.0
     Generated using "atomic" code by A. Dal Corso v.5.0.99 svn rev. 10869
     Shape of augmentation charge: PSQ
     Using radial grid of 1187 points,  6 beta functions with:
                l(1) =   0
                l(2) =   0
                l(3) =   1
                l(4) =   1
                l(5) =   2
                l(6) =   2
     Q(r) pseudized with 0 coefficients

     PseudoPot. # 2 for Mn read from file:
     ./pseudo/Mn.pbe-spn-kjpaw_psl.0.3.1.UPF
     MD5 check sum: 7b43a3fb0e93e198b8dd8488d8cf503e
     Pseudo is Projector augmented-wave + core cor, Zval = 15.0
     Generated using "atomic" code by A. Dal Corso v.5.0.99 svn rev. 10869
     Shape of augmentation charge: PSQ
     Using radial grid of 1187 points,  6 beta functions with:
                l(1) =   0
                l(2) =   0
                l(3) =   1
                l(4) =   1
                l(5) =   2
                l(6) =   2
     Q(r) pseudized with 0 coefficients

     PseudoPot. # 3 for Au read from file:
     ./pseudo/Au.pbe-dn-kjpaw_psl.0.1.UPF
     MD5 check sum: be11e2e8e535ebe2b3ccfb4f88f554cb
     Pseudo is Projector augmented-wave + core cor, Zval = 11.0
     Generated using "atomic" code by A. Dal Corso v.5.0.2 svn rev. 9415
     Shape of augmentation charge: PSQ
     Using radial grid of 1279 points,  6 beta functions with:
                l(1) =   0
                l(2) =   0
                l(3) =   1
                l(4) =   1
                l(5) =   2
                l(6) =   2
     Q(r) pseudized with 0 coefficients

     atomic species   valence    mass     pseudopotential
        Mn1           15.00    54.93800     Mn( 1.00)
        Mn2           15.00    54.93800     Mn( 1.00)
        Au            11.00   196.96600     Au( 1.00)

     Starting magnetic structure
     atomic species   magnetization
        Mn1          0.800
        Mn2         -0.800
        Au           0.000

     Full LDA+U calculation (l_max = 2) with parameters (eV):
     U(  1) =   3.1200   J(  1) =   0.7000   B(  1) =   0.0803
     U(  2) =   3.1200   J(  2) =   0.7000   B(  2) =   0.0803

      8 Sym. Ops. (no inversion) found

   Cartesian axes

     site n.     atom                  positions (alat units)
         1           Mn1 tau(   1) = (   0.0000000   0.0000000   0.0000000  )
         2           Mn1 tau(   2) = (   0.5000000   0.5000000   1.2899921  )
         3           Mn1 tau(   3) = (   0.0000000   0.0000000   2.5799843  )
         4           Mn1 tau(   4) = (   0.5000000   0.5000000   3.8699764  )
         5           Mn1 tau(   5) = (   0.0000000   0.0000000   5.1599686  )
         6           Mn1 tau(   6) = (   0.5000000   0.5000000   6.4499607  )
         7           Mn2 tau(   7) = (   0.0000000   0.0000000   7.7399528  )
         8           Mn2 tau(   8) = (   0.5000000   0.5000000   9.0299450  )
         9           Au  tau(   9) = (   0.5000000   0.5000000   0.4127975  )
        10           Au  tau(  10) = (   0.0000000   0.0000000   0.8771947  )
        11           Au  tau(  11) = (   0.0000000   0.0000000   1.7027896  )
        12           Au  tau(  12) = (   0.5000000   0.5000000   2.1671868  )
        13           Au  tau(  13) = (   0.5000000   0.5000000   2.9927818  )
        14           Au  tau(  14) = (   0.0000000   0.0000000   3.4571789  )
        15           Au  tau(  15) = (   0.0000000   0.0000000   4.2827739  )
        16           Au  tau(  16) = (   0.5000000   0.5000000   4.7471711  )
        17           Au  tau(  17) = (   0.5000000   0.5000000   5.5727660  )
        18           Au  tau(  18) = (   0.0000000   0.0000000   6.0371632  )
        19           Au  tau(  19) = (   0.0000000   0.0000000   6.8627582  )
        20           Au  tau(  20) = (   0.5000000   0.5000000   7.3271553  )
        21           Au  tau(  21) = (   0.5000000   0.5000000   8.1527503  )
        22           Au  tau(  22) = (   0.0000000   0.0000000   8.6171475  )
        23           Au  tau(  23) = (   0.0000000   0.0000000   9.4427424  )
        24           Au  tau(  24) = (   0.5000000   0.5000000   9.9071396  )

     number of k points=    30 (tetrahedron method)
                       cart. coord. in units 2pi/alat
        k(    1) = (   0.0000000   0.0000000   0.0000000), wk =   0.0078125
        k(    2) = (   0.0000000   0.0000000  -0.0484499), wk =   0.0078125
        k(    3) = (   0.0000000   0.1250000   0.0000000), wk =   0.0312500
        k(    4) = (   0.0000000   0.1250000  -0.0484499), wk =   0.0312500
        k(    5) = (   0.0000000   0.2500000   0.0000000), wk =   0.0312500
        k(    6) = (   0.0000000   0.2500000  -0.0484499), wk =   0.0312500
        k(    7) = (   0.0000000   0.3750000   0.0000000), wk =   0.0312500
        k(    8) = (   0.0000000   0.3750000  -0.0484499), wk =   0.0312500
        k(    9) = (   0.0000000  -0.5000000   0.0000000), wk =   0.0156250
        k(   10) = (   0.0000000  -0.5000000  -0.0484499), wk =   0.0156250
        k(   11) = (   0.1250000   0.1250000   0.0000000), wk =   0.0312500
        k(   12) = (   0.1250000   0.1250000  -0.0484499), wk =   0.0312500
        k(   13) = (   0.1250000   0.2500000   0.0000000), wk =   0.0625000
        k(   14) = (   0.1250000   0.2500000  -0.0484499), wk =   0.0625000
        k(   15) = (   0.1250000   0.3750000   0.0000000), wk =   0.0625000
        k(   16) = (   0.1250000   0.3750000  -0.0484499), wk =   0.0625000
        k(   17) = (   0.1250000  -0.5000000   0.0000000), wk =   0.0312500
        k(   18) = (   0.1250000  -0.5000000  -0.0484499), wk =   0.0312500
        k(   19) = (   0.2500000   0.2500000   0.0000000), wk =   0.0312500
        k(   20) = (   0.2500000   0.2500000  -0.0484499), wk =   0.0312500
        k(   21) = (   0.2500000   0.3750000   0.0000000), wk =   0.0625000
        k(   22) = (   0.2500000   0.3750000  -0.0484499), wk =   0.0625000
        k(   23) = (   0.2500000  -0.5000000   0.0000000), wk =   0.0312500
        k(   24) = (   0.2500000  -0.5000000  -0.0484499), wk =   0.0312500
        k(   25) = (   0.3750000   0.3750000   0.0000000), wk =   0.0312500
        k(   26) = (   0.3750000   0.3750000  -0.0484499), wk =   0.0312500
        k(   27) = (   0.3750000  -0.5000000   0.0000000), wk =   0.0312500
        k(   28) = (   0.3750000  -0.5000000  -0.0484499), wk =   0.0312500
        k(   29) = (  -0.5000000  -0.5000000   0.0000000), wk =   0.0078125
        k(   30) = (  -0.5000000  -0.5000000  -0.0484499), wk =   0.0078125

     Check: negative/imaginary core charge=   -0.000006    0.000000

     Initial potential from superposition of free atoms

     starting charge  295.99426, renormalised to  296.00000
     Number of +U iterations with fixed ns =  0
     Starting occupations:
 --- enter write_ns ---
 LDA+U parameters:
U(  1) =   3.1200   J(  1) =   0.7000   B(  1) =   0.0803
U(  2) =   3.1200   J(  2) =   0.7000   B(  2) =   0.0803
atom    1   Tr[ns(na)] (up, down, total) =   5.00000  0.00000  5.00000
   spin  1
    eigenvalues:
  1.000  1.000  1.000  1.000  1.000
    eigenvectors:
  1.000  0.000  0.000  0.000  0.000
  0.000  1.000  0.000  0.000  0.000
  0.000  0.000  1.000  0.000  0.000
  0.000  0.000  0.000  1.000  0.000
  0.000  0.000  0.000  0.000  1.000
    occupations:
  1.000  0.000  0.000  0.000  0.000
  0.000  1.000  0.000  0.000  0.000
  0.000  0.000  1.000  0.000  0.000
  0.000  0.000  0.000  1.000  0.000
  0.000  0.000  0.000  0.000  1.000
   spin  2
    eigenvalues:
  0.000  0.000  0.000  0.000  0.000
    eigenvectors:
  1.000  0.000  0.000  0.000  0.000
  0.000  1.000  0.000  0.000  0.000
  0.000  0.000  1.000  0.000  0.000
  0.000  0.000  0.000  1.000  0.000
  0.000  0.000  0.000  0.000  1.000
    occupations:
  0.000  0.000  0.000  0.000  0.000
  0.000  0.000  0.000  0.000  0.000
  0.000  0.000  0.000  0.000  0.000
  0.000  0.000  0.000  0.000  0.000
  0.000  0.000  0.000  0.000  0.000
atomic mag. moment =     5.000000
atom    2   Tr[ns(na)] (up, down, total) =   5.00000  0.00000  5.00000
   spin  1
    eigenvalues:
  1.000  1.000  1.000  1.000  1.000
    eigenvectors:
  1.000  0.000  0.000  0.000  0.000
  0.000  1.000  0.000  0.000  0.000
  0.000  0.000  1.000  0.000  0.000
  0.000  0.000  0.000  1.000  0.000
  0.000  0.000  0.000  0.000  1.000
    occupations:
  1.000  0.000  0.000  0.000  0.000
  0.000  1.000  0.000  0.000  0.000
  0.000  0.000  1.000  0.000  0.000
  0.000  0.000  0.000  1.000  0.000
  0.000  0.000  0.000  0.000  1.000
   spin  2
    eigenvalues:
  0.000  0.000  0.000  0.000  0.000
    eigenvectors:
  1.000  0.000  0.000  0.000  0.000
  0.000  1.000  0.000  0.000  0.000
  0.000  0.000  1.000  0.000  0.000
  0.000  0.000  0.000  1.000  0.000
  0.000  0.000  0.000  0.000  1.000
    occupations:
  0.000  0.000  0.000  0.000  0.000
  0.000  0.000  0.000  0.000  0.000
  0.000  0.000  0.000  0.000  0.000
  0.000  0.000  0.000  0.000  0.000
  0.000  0.000  0.000  0.000  0.000
atomic mag. moment =     5.000000
atom    3   Tr[ns(na)] (up, down, total) =   5.00000  0.00000  5.00000
   spin  1
    eigenvalues:
[...]
  1.000  0.000  0.000  0.000  0.000
  0.000  0.000  0.000  0.000  1.000
    occupations:
  0.076 -0.000 -0.000  0.000  0.000
 -0.000  0.083 -0.000  0.000  0.000
 -0.000 -0.000  0.083  0.000  0.000
  0.000  0.000  0.000  0.054 -0.000
  0.000  0.000  0.000 -0.000  0.122
   spin  2
    eigenvalues:
  1.003  1.003  1.003  1.004  1.004
    eigenvectors:
  0.000  0.000  0.000  1.000  0.000
  0.000  0.346  0.654  0.000  0.000
  0.000  0.654  0.346  0.000  0.000
  0.000  0.000  0.000  0.000  1.000
  1.000  0.000  0.000  0.000  0.000
    occupations:
  1.004 -0.000 -0.000  0.000  0.000
 -0.000  1.003 -0.000  0.000  0.000
 -0.000 -0.000  1.003  0.000  0.000
  0.000  0.000  0.000  1.004 -0.000
  0.000  0.000  0.000 -0.000  1.003
atomic mag. moment =    -4.601035
N of occupied +U levels =   43.397839
 --- exit write_ns ---

     total energy              =  -14687.26977518 Ry
     Harris-Foulkes estimate   =  -14685.80961339 Ry
     estimated scf accuracy    <      11.55625386 Ry

     total magnetization       =    20.26 Bohr mag/cell
     absolute magnetization    =    41.52 Bohr mag/cell

     iteration #  2     ecut=    45.00 Ry     beta= 0.10
     Davidson diagonalization with overlap
     ethr =  3.90E-03,  avg # of iterations =  1.0

[...]

     iteration # 14     ecut=    45.00 Ry     beta= 0.10
     Davidson diagonalization with overlap
     c_bands:  1 eigenvalues not converged
     ethr =  8.71E-06,  avg # of iterations =  1.5

[...]

     total energy              =  -14694.00953265 Ry
     Harris-Foulkes estimate   =  -14694.00953193 Ry
     estimated scf accuracy    <       0.00000223 Ry

[...]

     iteration # 30     ecut=    45.00 Ry     beta= 0.10
     Davidson diagonalization with overlap
     ethr =  7.54E-10,  avg # of iterations =  1.1

     Magnetic moment per site:
     atom:    1    charge:   13.5494    magn:    4.2237    constr:    0.0000
     atom:    2    charge:   13.5541    magn:    4.1924    constr:    0.0000
     atom:    3    charge:   13.5545    magn:    4.1915    constr:    0.0000
     atom:    4    charge:   13.5548    magn:    4.1912    constr:    0.0000
     atom:    5    charge:   13.5539    magn:    4.1925    constr:    0.0000
     atom:    6    charge:   13.5496    magn:    4.2236    constr:    0.0000
     atom:    7    charge:   13.5482    magn:   -4.2348    constr:    0.0000
     atom:    8    charge:   13.5483    magn:   -4.2351    constr:    0.0000
     atom:    9    charge:    9.1219    magn:    0.0293    constr:    0.0000
     atom:   10    charge:    9.1215    magn:    0.0277    constr:    0.0000
     atom:   11    charge:    9.1209    magn:    0.0285    constr:    0.0000
     atom:   12    charge:    9.1200    magn:    0.0247    constr:    0.0000
     atom:   13    charge:    9.1203    magn:    0.0246    constr:    0.0000
     atom:   14    charge:    9.1205    magn:    0.0246    constr:    0.0000
     atom:   15    charge:    9.1202    magn:    0.0247    constr:    0.0000
     atom:   16    charge:    9.1208    magn:    0.0285    constr:    0.0000
     atom:   17    charge:    9.1214    magn:    0.0276    constr:    0.0000
     atom:   18    charge:    9.1220    magn:    0.0292    constr:    0.0000
     atom:   19    charge:    9.1229    magn:    0.0353    constr:    0.0000
     atom:   20    charge:    9.1235    magn:   -0.0465    constr:    0.0000
     atom:   21    charge:    9.1227    magn:   -0.0374    constr:    0.0000
     atom:   22    charge:    9.1229    magn:   -0.0375    constr:    0.0000
     atom:   23    charge:    9.1237    magn:   -0.0465    constr:    0.0000
     atom:   24    charge:    9.1229    magn:    0.0355    constr:    0.0000

     End of self-consistent calculation
 --- enter write_ns ---
 LDA+U parameters:
U(  1) =   3.1200   J(  1) =   0.7000   B(  1) =   0.0803
U(  2) =   3.1200   J(  2) =   0.7000   B(  2) =   0.0803
atom    1   Tr[ns(na)] (up, down, total) =   4.97055  0.74604  5.71658
   spin  1
    eigenvalues:
  0.984  0.994  0.994  0.997  1.002
    eigenvectors:
  0.000  0.000  0.000  1.000  0.000
  0.000  0.315  0.685  0.000  0.000
  0.000  0.685  0.315  0.000  0.000
  0.000  0.000  0.000  0.000  1.000
  1.000  0.000  0.000  0.000  0.000
    occupations:
  0.997 -0.000 -0.000  0.000  0.000
 -0.000  0.994 -0.000  0.000  0.000
 -0.000 -0.000  0.994  0.000  0.000
  0.000  0.000  0.000  1.002 -0.000
  0.000  0.000  0.000 -0.000  0.984
   spin  2
    eigenvalues:
  0.065  0.135  0.146  0.146  0.253
    eigenvectors:
  0.000  1.000  0.000  0.000  0.000
  0.000  0.000  0.256  0.744  0.000
  0.000  0.000  0.744  0.256  0.000
  1.000  0.000  0.000  0.000  0.000
  0.000  0.000  0.000  0.000  1.000
    occupations:
  0.135 -0.000 -0.000  0.000  0.000
 -0.000  0.146 -0.000  0.000  0.000
 -0.000 -0.000  0.146  0.000  0.000
  0.000  0.000  0.000  0.065 -0.000
  0.000  0.000  0.000 -0.000  0.253
atomic mag. moment =     4.224508
atom    2   Tr[ns(na)] (up, down, total) =   4.96864  0.77056  5.73920
   spin  1
    eigenvalues:
  0.984  0.993  0.993  0.996  1.002
    eigenvectors:
  0.000  0.000  0.000  1.000  0.000
  0.000  0.370  0.630  0.000  0.000
  0.000  0.630  0.370  0.000  0.000
  0.000  0.000  0.000  0.000  1.000
  1.000  0.000  0.000  0.000  0.000
    occupations:
  0.996 -0.000 -0.000  0.000  0.000
 -0.000  0.993 -0.000  0.000  0.000
 -0.000 -0.000  0.993  0.000  0.000
  0.000  0.000  0.000  1.002 -0.000
  0.000  0.000  0.000 -0.000  0.984
   spin  2
    eigenvalues:
  0.065  0.144  0.144  0.150  0.268
    eigenvectors:
  0.000  0.000  0.000  1.000  0.000
  0.000  0.322  0.678  0.000  0.000
  0.000  0.678  0.322  0.000  0.000
  1.000  0.000  0.000  0.000  0.000
  0.000  0.000  0.000  0.000  1.000
    occupations:
  0.150 -0.000 -0.000  0.000  0.000
 -0.000  0.144 -0.000  0.000  0.000
 -0.000 -0.000  0.144  0.000  0.000
  0.000  0.000  0.000  0.065 -0.000
  0.000  0.000  0.000 -0.000  0.268
atomic mag. moment =     4.198076
atom    3   Tr[ns(na)] (up, down, total) =   4.96827  0.77138  5.73965
   spin  1
    eigenvalues:
  0.984  0.993  0.993  0.997  1.002
    eigenvectors:
  0.000  0.000  0.000  1.000  0.000
  0.000  0.380  0.620  0.000  0.000
  0.000  0.620  0.380  0.000  0.000
  0.000  0.000  0.000  0.000  1.000
  1.000  0.000  0.000  0.000  0.000
    occupations:
  0.997 -0.000 -0.000  0.000  0.000
 -0.000  0.993 -0.000  0.000  0.000
 -0.000 -0.000  0.993  0.000  0.000
  0.000  0.000  0.000  1.002 -0.000
  0.000  0.000  0.000 -0.000  0.984
   spin  2
    eigenvalues:
  0.065  0.143  0.143  0.153  0.268
    eigenvectors:
  0.000  0.000  0.000  1.000  0.000
  0.000  0.242  0.758  0.000  0.000
  0.000  0.758  0.242  0.000  0.000
  1.000  0.000  0.000  0.000  0.000
  0.000  0.000  0.000  0.000  1.000
    occupations:
  0.153 -0.000 -0.000  0.000  0.000
 -0.000  0.143 -0.000  0.000  0.000
 -0.000 -0.000  0.143  0.000  0.000
  0.000  0.000  0.000  0.065 -0.000
  0.000  0.000  0.000 -0.000  0.268
atomic mag. moment =     4.196897
atom    4   Tr[ns(na)] (up, down, total) =   4.96824  0.77165  5.73988
   spin  1
    eigenvalues:
  0.984  0.993  0.993  0.997  1.002
    eigenvectors:
  0.000  0.000  0.000  1.000  0.000
  0.000  0.272  0.728  0.000  0.000
  0.000  0.728  0.272  0.000  0.000
  0.000  0.000  0.000  0.000  1.000
  1.000  0.000  0.000  0.000  0.000
    occupations:
  0.997 -0.000 -0.000  0.000  0.000
 -0.000  0.993 -0.000  0.000  0.000
 -0.000 -0.000  0.993  0.000  0.000
  0.000  0.000  0.000  1.002 -0.000
  0.000  0.000  0.000 -0.000  0.984
   spin  2
    eigenvalues:
  0.065  0.143  0.143  0.153  0.268
    eigenvectors:
  0.000  0.000  0.000  1.000  0.000
  0.000  0.249  0.751  0.000  0.000
  0.000  0.751  0.249  0.000  0.000
  1.000  0.000  0.000  0.000  0.000
  0.000  0.000  0.000  0.000  1.000
    occupations:
  0.153 -0.000 -0.000  0.000  0.000
 -0.000  0.143 -0.000  0.000  0.000
 -0.000 -0.000  0.143  0.000  0.000
  0.000  0.000  0.000  0.065 -0.000
  0.000  0.000  0.000 -0.000  0.268
atomic mag. moment =     4.196590
atom    5   Tr[ns(na)] (up, down, total) =   4.96868  0.77042  5.73910
   spin  1
    eigenvalues:
  0.984  0.993  0.993  0.996  1.002
    eigenvectors:
  0.000  0.000  0.000  1.000  0.000
  0.000  0.348  0.652  0.000  0.000
  0.000  0.652  0.348  0.000  0.000
  0.000  0.000  0.000  0.000  1.000
  1.000  0.000  0.000  0.000  0.000
    occupations:
  0.996 -0.000 -0.000  0.000  0.000
 -0.000  0.993 -0.000  0.000  0.000
 -0.000 -0.000  0.993  0.000  0.000
  0.000  0.000  0.000  1.002 -0.000
  0.000  0.000  0.000 -0.000  0.984
   spin  2
    eigenvalues:
  0.065  0.144  0.144  0.150  0.268
    eigenvectors:
  0.000  0.000  0.000  1.000  0.000
  0.000  0.276  0.724  0.000  0.000
  0.000  0.724  0.276  0.000  0.000
  1.000  0.000  0.000  0.000  0.000
  0.000  0.000  0.000  0.000  1.000
    occupations:
  0.150 -0.000 -0.000  0.000  0.000
 -0.000  0.144 -0.000  0.000  0.000
 -0.000 -0.000  0.144  0.000  0.000
  0.000  0.000  0.000  0.065 -0.000
  0.000  0.000  0.000 -0.000  0.268
atomic mag. moment =     4.198267
atom    6   Tr[ns(na)] (up, down, total) =   4.97048  0.74614  5.71662
   spin  1
    eigenvalues:
  0.984  0.994  0.994  0.997  1.002
    eigenvectors:
  0.000  0.000  0.000  1.000  0.000
  0.000  0.292  0.708  0.000  0.000
  0.000  0.708  0.292  0.000  0.000
  0.000  0.000  0.000  0.000  1.000
  1.000  0.000  0.000  0.000  0.000
    occupations:
  0.997 -0.000 -0.000  0.000  0.000
 -0.000  0.994 -0.000  0.000  0.000
 -0.000 -0.000  0.994  0.000  0.000
  0.000  0.000  0.000  1.002 -0.000
  0.000  0.000  0.000 -0.000  0.984
   spin  2
    eigenvalues:
  0.065  0.135  0.146  0.146  0.254
    eigenvectors:
  0.000  1.000  0.000  0.000  0.000
  0.000  0.000  0.403  0.597  0.000
  0.000  0.000  0.597  0.403  0.000
  1.000  0.000  0.000  0.000  0.000
  0.000  0.000  0.000  0.000  1.000
    occupations:
  0.135 -0.000 -0.000  0.000  0.000
 -0.000  0.146 -0.000  0.000  0.000
 -0.000 -0.000  0.146  0.000  0.000
  0.000  0.000  0.000  0.065 -0.000
  0.000  0.000  0.000 -0.000  0.254
atomic mag. moment =     4.224342
atom    7   Tr[ns(na)] (up, down, total) =   0.73989  4.97147  5.71136
   spin  1
    eigenvalues:
  0.064  0.134  0.143  0.143  0.256
    eigenvectors:
  0.000  1.000  0.000  0.000  0.000
  0.000  0.000  0.329  0.671  0.000
  0.000  0.000  0.671  0.329  0.000
  1.000  0.000  0.000  0.000  0.000
  0.000  0.000  0.000  0.000  1.000
    occupations:
  0.134 -0.000 -0.000  0.000  0.000
 -0.000  0.143 -0.000  0.000  0.000
 -0.000 -0.000  0.143  0.000  0.000
  0.000  0.000  0.000  0.064 -0.000
  0.000  0.000  0.000 -0.000  0.256
   spin  2
    eigenvalues:
  0.984  0.994  0.994  0.997  1.002
    eigenvectors:
  0.000  0.000  0.000  1.000  0.000
  0.000  0.352  0.648  0.000  0.000
  0.000  0.648  0.352  0.000  0.000
  0.000  0.000  0.000  0.000  1.000
  1.000  0.000  0.000  0.000  0.000
    occupations:
  0.997 -0.000 -0.000  0.000  0.000
 -0.000  0.994 -0.000  0.000  0.000
 -0.000 -0.000  0.994  0.000  0.000
  0.000  0.000  0.000  1.002 -0.000
  0.000  0.000  0.000 -0.000  0.984
atomic mag. moment =    -4.231581
atom    8   Tr[ns(na)] (up, down, total) =   0.73963  4.97153  5.71117
   spin  1
    eigenvalues:
  0.064  0.134  0.143  0.143  0.255
    eigenvectors:
  0.000  1.000  0.000  0.000  0.000
  0.000  0.000  0.322  0.678  0.000
  0.000  0.000  0.678  0.322  0.000
  1.000  0.000  0.000  0.000  0.000
  0.000  0.000  0.000  0.000  1.000
    occupations:
  0.134 -0.000 -0.000  0.000  0.000
 -0.000  0.143 -0.000  0.000  0.000
 -0.000 -0.000  0.143  0.000  0.000
  0.000  0.000  0.000  0.064 -0.000
  0.000  0.000  0.000 -0.000  0.255
   spin  2
    eigenvalues:
  0.985  0.994  0.994  0.997  1.002
    eigenvectors:
  0.000  0.000  0.000  1.000  0.000
  0.000  0.269  0.731  0.000  0.000
  0.000  0.731  0.269  0.000  0.000
  0.000  0.000  0.000  0.000  1.000
  1.000  0.000  0.000  0.000  0.000
    occupations:
  0.997 -0.000 -0.000  0.000  0.000
 -0.000  0.994 -0.000  0.000  0.000
 -0.000 -0.000  0.994  0.000  0.000
  0.000  0.000  0.000  1.002 -0.000
  0.000  0.000  0.000 -0.000  0.985
atomic mag. moment =    -4.231904
N of occupied +U levels =   45.813561
 --- exit write_ns ---

 ------ SPIN UP ------------

          k = 0.0000 0.0000 0.0000 ( 13925 PWs)   bands (ev):

   -66.7419 -66.7417 -66.6254 -66.6249 -66.6139 -66.6132 -62.1786 -62.1781
   -35.5074 -35.5072 -35.4618 -35.4618 -35.4614 -35.4614 -35.3977 -35.3977
   -35.3844 -35.3842 -35.3438 -35.3438 -35.3431 -35.3431 -35.3334 -35.3334
   -35.3324 -35.3324 -31.0049 -31.0046 -30.9969 -30.9969 -30.9963 -30.9963
     5.7425   5.8666   5.9325   6.3331   6.3555   6.9829   7.0394   7.6111
     8.2161   8.3509   8.3595   8.3958   8.4345   8.4922   8.5563   8.6414
     8.7780   8.7878   8.8156   8.8218   9.0160   9.0498   9.1372   9.2030
     9.2082   9.3657   9.4386   9.4614   9.5417   9.6039   9.6882   9.8438
     9.8761   9.9004   9.9065   9.9831  10.1035  10.1128  10.1162  10.1162
    10.1685  10.1685  10.1836  10.1836  10.2497  10.2507  10.3309  10.3309
    10.3391  10.3391  10.4284  10.4321  10.5051  10.5817  10.5817  10.5864
    10.5864  10.5999  10.5999  10.6031  10.6031  10.6494  10.6494  10.6531
    10.6796  10.7060  10.7060  10.7750  10.7750  10.7835  10.7835  10.8311
    10.9945  10.9976  11.0370  11.0370  11.0397  11.0397  11.0653  11.1866
    11.2412  11.2536  11.2894  11.3999  11.4908  11.4908  11.5395  11.5451
    11.5508  11.5508  11.5879  11.7324  11.7690  11.8378  11.8988  11.9045
    11.9045  12.0233  12.0441  12.0581  12.0715  12.0715  12.1031  12.1587
    12.2294  12.2357  12.3767  12.3767  12.4902  12.6147  12.6147  12.6567
    12.8034  12.8034  12.8070  12.8129  12.9410  13.0501  13.1100  13.1242
    13.2340  13.8895  14.1196  15.0504  15.5552  16.5621  16.7804  16.7804
    16.9429  16.9972  17.0734  17.0734  17.0933  17.1467  17.4893  17.5675
    18.1431  19.3790  19.6438  20.0348  20.0348  20.3708  20.3708  20.4602
    20.4602  21.3800

[...]

          k =-0.5000-0.5000 0.0000 ( 13964 PWs)   bands (ev):

[...]

 ------ SPIN DOWN ----------

[...]

          k = 0.3750-0.5000-0.0484 ( 13940 PWs)   bands (ev):

[...]

          k =-0.5000-0.5000-0.0484 ( 13992 PWs)   bands (ev):

   -66.7647 -66.7639 -62.1616 -62.1616 -62.0723 -62.0721 -62.0622 -62.0619
   -35.5345 -35.5345 -35.4937 -35.4937 -35.4926 -35.4926 -30.9962 -30.9962
   -30.9962 -30.9962 -30.9848 -30.9847 -30.9050 -30.9050 -30.9049 -30.9049
   -30.9031 -30.9028 -30.8960 -30.8960 -30.8958 -30.8958 -30.8909 -30.8906
     8.0693   8.0700   8.4548   8.4554   8.5923   8.5925   8.6722   8.6722
     8.9728   8.9732   9.0619   9.0620   9.2373   9.2373   9.2874   9.2874
     9.3420   9.3423   9.3609   9.3609   9.3744   9.3745   9.3770   9.3770
     9.5606   9.5606   9.5651   9.5651   9.8608   9.8608   9.8698   9.8698
     9.8875   9.8875   9.9180   9.9190  10.0312  10.0312  10.2473  10.2473
    10.3269  10.3269  10.5595  10.5598  10.6255  10.6255  10.6952  10.6952
    10.7590  10.7590  10.8480  10.8480  11.0993  11.0996  11.3352  11.3352
    11.3478  11.3478  11.3838  11.3839  11.4420  11.4431  11.6519  11.6519
    11.9249  11.9250  11.9525  11.9526  11.9965  11.9968  11.9983  11.9985
    12.0234  12.0234  12.0492  12.0495  12.0892  12.0894  12.0907  12.0909
    12.1756  12.1758  12.2234  12.2235  12.2380  12.2381  12.2737  12.2737
    12.2989  12.2990  13.3687  13.3693  13.3988  13.3998  13.4155  13.4167
    13.8902  13.8902  14.0781  14.0781  14.3392  14.3392  14.4914  14.4914
    14.7251  14.7251  14.8377  14.8377  15.2053  15.2053  16.6004  16.6004
    16.6415  16.6418  16.7862  16.7864  16.8991  16.8991  16.9981  16.9983
    17.1618  17.1618  17.2919  17.2919  17.7997  17.7998  17.8033  17.8033
    17.8660  17.8660  17.9875  17.9875  18.0880  18.0885  18.1850  18.1859
    18.1917  18.1927  18.2092  18.2093  18.4869  18.4870  18.8093  18.8098
    18.8920  18.8920

     the Fermi energy is    15.2168 ev

!    total energy              =  -14694.00953466 Ry
     Harris-Foulkes estimate   =  -14694.00953171 Ry
     estimated scf accuracy    <       0.00000054 Ry

     total all-electron energy =   -626921.605257 Ry

     The total energy is the sum of the following terms:

     one-electron contribution =    -714.69781790 Ry
     hartree contribution      =     656.69896300 Ry
     xc contribution           =    -737.85616494 Ry
     ewald contribution        =   -2196.78933708 Ry
     Hubbard energy            =       0.46019730 Ry
     one-center paw contrib.   =  -11701.82537504 Ry

     total magnetization       =    17.03 Bohr mag/cell
     absolute magnetization    =    37.05 Bohr mag/cell

     convergence has been achieved in  30 iterations

     Writing output data file mnau2.save/

     General routines

     Parallel routines

     Hubbard U routines

       2h

   This run was terminated on:  23: 0: 4   6Apr2019

   JOB DONE.