     Program PWSCF v.6.3MaX starts on  6Apr2019 at 23: 0: 9

     R & G space division:  proc/nbgrp/npool/nimage =      16
     Waiting for input...
     Reading input from standard input

     Current dimensions of program PWSCF are:
     Max number of different atomic species (ntypx) = 10
     Max number of k-points (npk) =  40000
     Max angular momentum in pseudopotentials (lmaxx) =  3
               file Mn.pbe-spn-kjpaw_psl.0.3.1.UPF: wavefunction(s)  3P 3D renormalized
               file Mn.pbe-spn-kjpaw_psl.0.3.1.UPF: wavefunction(s)  3P 3D renormalized
               file Au.pbe-dn-kjpaw_psl.0.1.UPF: wavefunction(s)  6S 6P 5D renormalized

     bravais-lattice index     =            0
     lattice parameter (alat)  =       6.4153  a.u.
     unit-cell volume          =    2724.7774 (a.u.)^3
     number of atoms/cell      =           24
     number of atomic types    =            3
     number of electrons       =       296.00
     number of Kohn-Sham states=          178
     kinetic-energy cutoff     =      45.0000  Ry
     charge density cutoff     =     400.0000  Ry
     convergence threshold     =      1.0E-06
     mixing beta               =       0.1000
     number of iterations used =            8  plain     mixing
     Exchange-correlation      = SLA PW PBX PBC ( 1  4  3  4 0 0)

     celldm(1)=   6.415315  celldm(2)=   0.000000  celldm(3)=   0.000000
     celldm(4)=   0.000000  celldm(5)=   0.000000  celldm(6)=   0.000000

     crystal axes: (cart. coord. in units of alat)
               a(1) = (   1.000000   0.000000   0.000000 )
               a(2) = (   0.000000   1.000000   0.000000 )
               a(3) = (   0.000000   0.000000  10.319937 )

     reciprocal axes: (cart. coord. in units 2 pi/alat)
               b(1) = (  1.000000  0.000000  0.000000 )
               b(2) = (  0.000000  1.000000  0.000000 )
               b(3) = (  0.000000  0.000000  0.096900 )

     PseudoPot. # 1 for Mn read from file:
     ./pseudo/Mn.pbe-spn-kjpaw_psl.0.3.1.UPF
     MD5 check sum: 7b43a3fb0e93e198b8dd8488d8cf503e
     Pseudo is Projector augmented-wave + core cor, Zval = 15.0
     Generated using "atomic" code by A. Dal Corso v.5.0.99 svn rev. 10869
     Shape of augmentation charge: PSQ
     Using radial grid of 1187 points,  6 beta functions with:
                l(1) =   0
                l(2) =   0
                l(3) =   1
                l(4) =   1
                l(5) =   2
                l(6) =   2
     Q(r) pseudized with 0 coefficients

     PseudoPot. # 2 for Mn read from file:
     ./pseudo/Mn.pbe-spn-kjpaw_psl.0.3.1.UPF
     MD5 check sum: 7b43a3fb0e93e198b8dd8488d8cf503e
     Pseudo is Projector augmented-wave + core cor, Zval = 15.0
     Generated using "atomic" code by A. Dal Corso v.5.0.99 svn rev. 10869
     Shape of augmentation charge: PSQ
     Using radial grid of 1187 points,  6 beta functions with:
                l(1) =   0
                l(2) =   0
                l(3) =   1
                l(4) =   1
                l(5) =   2
                l(6) =   2
     Q(r) pseudized with 0 coefficients

     PseudoPot. # 3 for Au read from file:
     ./pseudo/Au.pbe-dn-kjpaw_psl.0.1.UPF
     MD5 check sum: be11e2e8e535ebe2b3ccfb4f88f554cb
     Pseudo is Projector augmented-wave + core cor, Zval = 11.0
     Generated using "atomic" code by A. Dal Corso v.5.0.2 svn rev. 9415
     Shape of augmentation charge: PSQ
     Using radial grid of 1279 points,  6 beta functions with:
                l(1) =   0
                l(2) =   0
                l(3) =   1
                l(4) =   1
                l(5) =   2
                l(6) =   2
     Q(r) pseudized with 0 coefficients

     atomic species   valence    mass     pseudopotential
        Mn1           15.00    54.93800     Mn( 1.00)
        Mn2           15.00    54.93800     Mn( 1.00)
        Au            11.00   196.96600     Au( 1.00)

     Starting magnetic structure
     atomic species   magnetization
        Mn1          0.800
        Mn2         -0.800
        Au           0.000

     Full LDA+U calculation (l_max = 2) with parameters (eV):
     U(  1) =   3.1200   J(  1) =   0.7000   B(  1) =   0.0803
     U(  2) =   3.1200   J(  2) =   0.7000   B(  2) =   0.0803

     16 Sym. Ops., with inversion, found ( 8 have fractional translation)

   Cartesian axes

     site n.     atom                  positions (alat units)
         1           Mn1 tau(   1) = (   0.0000000   0.0000000   0.0000000  )
         2           Mn1 tau(   2) = (   0.5000000   0.5000000   1.2899921  )
         3           Mn1 tau(   3) = (   0.0000000   0.0000000   2.5799843  )
         4           Mn1 tau(   4) = (   0.5000000   0.5000000   3.8699764  )
         5           Mn1 tau(   5) = (   0.0000000   0.0000000   5.1599686  )
         6           Mn2 tau(   6) = (   0.5000000   0.5000000   6.4499607  )
         7           Mn1 tau(   7) = (   0.0000000   0.0000000   7.7399528  )
         8           Mn2 tau(   8) = (   0.5000000   0.5000000   9.0299450  )
         9           Au  tau(   9) = (   0.5000000   0.5000000   0.4127975  )
        10           Au  tau(  10) = (   0.0000000   0.0000000   0.8771947  )
        11           Au  tau(  11) = (   0.0000000   0.0000000   1.7027896  )
        12           Au  tau(  12) = (   0.5000000   0.5000000   2.1671868  )
        13           Au  tau(  13) = (   0.5000000   0.5000000   2.9927818  )
        14           Au  tau(  14) = (   0.0000000   0.0000000   3.4571789  )
        15           Au  tau(  15) = (   0.0000000   0.0000000   4.2827739  )
        16           Au  tau(  16) = (   0.5000000   0.5000000   4.7471711  )
        17           Au  tau(  17) = (   0.5000000   0.5000000   5.5727660  )
        18           Au  tau(  18) = (   0.0000000   0.0000000   6.0371632  )
        19           Au  tau(  19) = (   0.0000000   0.0000000   6.8627582  )
        20           Au  tau(  20) = (   0.5000000   0.5000000   7.3271553  )
        21           Au  tau(  21) = (   0.5000000   0.5000000   8.1527503  )
        22           Au  tau(  22) = (   0.0000000   0.0000000   8.6171475  )
        23           Au  tau(  23) = (   0.0000000   0.0000000   9.4427424  )
        24           Au  tau(  24) = (   0.5000000   0.5000000   9.9071396  )

     number of k points=    30 (tetrahedron method)
                       cart. coord. in units 2pi/alat
        k(    1) = (   0.0000000   0.0000000   0.0000000), wk =   0.0078125
        k(    2) = (   0.0000000   0.0000000  -0.0484499), wk =   0.0078125
        k(    3) = (   0.0000000   0.1250000   0.0000000), wk =   0.0312500
        k(    4) = (   0.0000000   0.1250000  -0.0484499), wk =   0.0312500
        k(    5) = (   0.0000000   0.2500000   0.0000000), wk =   0.0312500
        k(    6) = (   0.0000000   0.2500000  -0.0484499), wk =   0.0312500
        k(    7) = (   0.0000000   0.3750000   0.0000000), wk =   0.0312500
        k(    8) = (   0.0000000   0.3750000  -0.0484499), wk =   0.0312500
        k(    9) = (   0.0000000  -0.5000000   0.0000000), wk =   0.0156250
        k(   10) = (   0.0000000  -0.5000000  -0.0484499), wk =   0.0156250
        k(   11) = (   0.1250000   0.1250000   0.0000000), wk =   0.0312500
        k(   12) = (   0.1250000   0.1250000  -0.0484499), wk =   0.0312500
        k(   13) = (   0.1250000   0.2500000   0.0000000), wk =   0.0625000
        k(   14) = (   0.1250000   0.2500000  -0.0484499), wk =   0.0625000
        k(   15) = (   0.1250000   0.3750000   0.0000000), wk =   0.0625000
        k(   16) = (   0.1250000   0.3750000  -0.0484499), wk =   0.0625000
        k(   17) = (   0.1250000  -0.5000000   0.0000000), wk =   0.0312500
        k(   18) = (   0.1250000  -0.5000000  -0.0484499), wk =   0.0312500
        k(   19) = (   0.2500000   0.2500000   0.0000000), wk =   0.0312500
        k(   20) = (   0.2500000   0.2500000  -0.0484499), wk =   0.0312500
        k(   21) = (   0.2500000   0.3750000   0.0000000), wk =   0.0625000
        k(   22) = (   0.2500000   0.3750000  -0.0484499), wk =   0.0625000
        k(   23) = (   0.2500000  -0.5000000   0.0000000), wk =   0.0312500
        k(   24) = (   0.2500000  -0.5000000  -0.0484499), wk =   0.0312500
        k(   25) = (   0.3750000   0.3750000   0.0000000), wk =   0.0312500
        k(   26) = (   0.3750000   0.3750000  -0.0484499), wk =   0.0312500
        k(   27) = (   0.3750000  -0.5000000   0.0000000), wk =   0.0312500
        k(   28) = (   0.3750000  -0.5000000  -0.0484499), wk =   0.0312500
        k(   29) = (  -0.5000000  -0.5000000   0.0000000), wk =   0.0078125
        k(   30) = (  -0.5000000  -0.5000000  -0.0484499), wk =   0.0078125

     Check: negative/imaginary core charge=   -0.000006    0.000000

     Initial potential from superposition of free atoms

     starting charge  295.99426, renormalised to  296.00000
     Number of +U iterations with fixed ns =  0
     Starting occupations:
 --- enter write_ns ---
 LDA+U parameters:
U(  1) =   3.1200   J(  1) =   0.7000   B(  1) =   0.0803
U(  2) =   3.1200   J(  2) =   0.7000   B(  2) =   0.0803
atom    1   Tr[ns(na)] (up, down, total) =   5.00000  0.00000  5.00000
   spin  1
    eigenvalues:
  1.000  1.000  1.000  1.000  1.000
    eigenvectors:
  1.000  0.000  0.000  0.000  0.000
  0.000  1.000  0.000  0.000  0.000
  0.000  0.000  1.000  0.000  0.000
  0.000  0.000  0.000  1.000  0.000
  0.000  0.000  0.000  0.000  1.000
    occupations:
  1.000  0.000  0.000  0.000  0.000
  0.000  1.000  0.000  0.000  0.000
  0.000  0.000  1.000  0.000  0.000
  0.000  0.000  0.000  1.000  0.000
  0.000  0.000  0.000  0.000  1.000
   spin  2
    eigenvalues:
  0.000  0.000  0.000  0.000  0.000
    eigenvectors:
  1.000  0.000  0.000  0.000  0.000
  0.000  1.000  0.000  0.000  0.000
  0.000  0.000  1.000  0.000  0.000
  0.000  0.000  0.000  1.000  0.000
  0.000  0.000  0.000  0.000  1.000
    occupations:
  0.000  0.000  0.000  0.000  0.000
  0.000  0.000  0.000  0.000  0.000
  0.000  0.000  0.000  0.000  0.000
  0.000  0.000  0.000  0.000  0.000
  0.000  0.000  0.000  0.000  0.000
atomic mag. moment =     5.000000
atom    2   Tr[ns(na)] (up, down, total) =   5.00000  0.00000  5.00000
   spin  1
    eigenvalues:
  1.000  1.000  1.000  1.000  1.000
    eigenvectors:
  1.000  0.000  0.000  0.000  0.000
  0.000  1.000  0.000  0.000  0.000
  0.000  0.000  1.000  0.000  0.000
  0.000  0.000  0.000  1.000  0.000
  0.000  0.000  0.000  0.000  1.000
    occupations:
  1.000  0.000  0.000  0.000  0.000
  0.000  1.000  0.000  0.000  0.000
  0.000  0.000  1.000  0.000  0.000
  0.000  0.000  0.000  1.000  0.000
  0.000  0.000  0.000  0.000  1.000
   spin  2
    eigenvalues:
  0.000  0.000  0.000  0.000  0.000
    eigenvectors:
  1.000  0.000  0.000  0.000  0.000
  0.000  1.000  0.000  0.000  0.000
  0.000  0.000  1.000  0.000  0.000
  0.000  0.000  0.000  1.000  0.000
  0.000  0.000  0.000  0.000  1.000
    occupations:
  0.000  0.000  0.000  0.000  0.000
  0.000  0.000  0.000  0.000  0.000
  0.000  0.000  0.000  0.000  0.000
  0.000  0.000  0.000  0.000  0.000
  0.000  0.000  0.000  0.000  0.000
atomic mag. moment =     5.000000
atom    3   Tr[ns(na)] (up, down, total) =   5.00000  0.00000  5.00000
   spin  1
[...]
   spin  1
    eigenvalues:
  0.054  0.074  0.081  0.081  0.125
    eigenvectors:
  0.000  1.000  0.000  0.000  0.000
  0.000  0.000  0.338  0.662  0.000
  0.000  0.000  0.662  0.338  0.000
  1.000  0.000  0.000  0.000  0.000
  0.000  0.000  0.000  0.000  1.000
    occupations:
  0.074 -0.000 -0.000  0.000  0.000
 -0.000  0.081 -0.000  0.000  0.000
 -0.000 -0.000  0.081  0.000  0.000
  0.000  0.000  0.000  0.054 -0.000
  0.000  0.000  0.000 -0.000  0.125
   spin  2
    eigenvalues:
  1.003  1.003  1.003  1.004  1.004
    eigenvectors:
  0.000  0.000  0.000  1.000  0.000
  0.000  0.306  0.694  0.000  0.000
  0.000  0.694  0.306  0.000  0.000
  0.000  0.000  0.000  0.000  1.000
  1.000  0.000  0.000  0.000  0.000
    occupations:
  1.004 -0.000 -0.000  0.000  0.000
 -0.000  1.003 -0.000  0.000  0.000
 -0.000 -0.000  1.003  0.000  0.000
  0.000  0.000  0.000  1.004 -0.000
  0.000  0.000  0.000 -0.000  1.003
atomic mag. moment =    -4.604053
N of occupied +U levels =   43.395737
 --- exit write_ns ---

     total energy              =  -14687.27582880 Ry
     Harris-Foulkes estimate   =  -14685.81672307 Ry
     estimated scf accuracy    <      11.55664837 Ry

     total magnetization       =    20.20 Bohr mag/cell
     absolute magnetization    =    41.59 Bohr mag/cell

     iteration #  2     ecut=    45.00 Ry     beta= 0.10
     Davidson diagonalization with overlap
     ethr =  3.90E-03,  avg # of iterations =  1.0

[...]

     total energy              =  -14694.00273613 Ry
     Harris-Foulkes estimate   =  -14694.00273468 Ry
     estimated scf accuracy    <       0.00000173 Ry

[...]

     iteration # 24     ecut=    45.00 Ry     beta= 0.10
     Davidson diagonalization with overlap
     ethr =  5.86E-10,  avg # of iterations =  1.8

     Magnetic moment per site:
     atom:    1    charge:   13.5468    magn:    4.2398    constr:    0.0000
     atom:    2    charge:   13.5531    magn:    4.1977    constr:    0.0000
     atom:    3    charge:   13.5541    magn:    4.1943    constr:    0.0000
     atom:    4    charge:   13.5531    magn:    4.1977    constr:    0.0000
     atom:    5    charge:   13.5468    magn:    4.2398    constr:    0.0000
     atom:    6    charge:   13.5442    magn:   -4.2600    constr:    0.0000
     atom:    7    charge:   13.5417    magn:    4.2746    constr:    0.0000
     atom:    8    charge:   13.5442    magn:   -4.2600    constr:    0.0000
     atom:    9    charge:    9.1226    magn:    0.0307    constr:    0.0000
     atom:   10    charge:    9.1222    magn:    0.0295    constr:    0.0000
     atom:   11    charge:    9.1212    magn:    0.0289    constr:    0.0000
     atom:   12    charge:    9.1195    magn:    0.0237    constr:    0.0000
     atom:   13    charge:    9.1195    magn:    0.0237    constr:    0.0000
     atom:   14    charge:    9.1212    magn:    0.0289    constr:    0.0000
     atom:   15    charge:    9.1222    magn:    0.0295    constr:    0.0000
     atom:   16    charge:    9.1226    magn:    0.0307    constr:    0.0000
     atom:   17    charge:    9.1241    magn:    0.0384    constr:    0.0000
     atom:   18    charge:    9.1243    magn:   -0.0405    constr:    0.0000
     atom:   19    charge:    9.1249    magn:   -0.0373    constr:    0.0000
     atom:   20    charge:    9.1252    magn:    0.0393    constr:    0.0000
     atom:   21    charge:    9.1252    magn:    0.0393    constr:    0.0000
     atom:   22    charge:    9.1249    magn:   -0.0373    constr:    0.0000
     atom:   23    charge:    9.1243    magn:   -0.0405    constr:    0.0000
     atom:   24    charge:    9.1241    magn:    0.0384    constr:    0.0000

     End of self-consistent calculation
 --- enter write_ns ---
 LDA+U parameters:
U(  1) =   3.1200   J(  1) =   0.7000   B(  1) =   0.0803
U(  2) =   3.1200   J(  2) =   0.7000   B(  2) =   0.0803
atom    1   Tr[ns(na)] (up, down, total) =   4.97255  0.73245  5.70501
   spin  1
    eigenvalues:
  0.985  0.994  0.994  0.997  1.002
    eigenvectors:
  0.000  0.000  0.000  1.000  0.000
  0.000  0.327  0.673  0.000  0.000
  0.000  0.673  0.327  0.000  0.000
  0.000  0.000  0.000  0.000  1.000
  1.000  0.000  0.000  0.000  0.000
    occupations:
  0.997 -0.000 -0.000  0.000  0.000
 -0.000  0.994 -0.000  0.000  0.000
 -0.000 -0.000  0.994  0.000  0.000
  0.000  0.000  0.000  1.002 -0.000
  0.000  0.000  0.000 -0.000  0.985
   spin  2
    eigenvalues:
  0.067  0.130  0.144  0.144  0.247
    eigenvectors:
  0.000  1.000  0.000  0.000  0.000
  0.000  0.000  0.332  0.668  0.000
  0.000  0.000  0.668  0.332  0.000
  1.000  0.000  0.000  0.000  0.000
  0.000  0.000  0.000  0.000  1.000
    occupations:
  0.130 -0.000 -0.000  0.000  0.000
 -0.000  0.144 -0.000  0.000  0.000
 -0.000 -0.000  0.144  0.000  0.000
  0.000  0.000  0.000  0.067 -0.000
  0.000  0.000  0.000 -0.000  0.247
atomic mag. moment =     4.240104
atom    2   Tr[ns(na)] (up, down, total) =   4.96924  0.76547  5.73470
   spin  1
    eigenvalues:
  0.984  0.993  0.993  0.996  1.002
    eigenvectors:
  0.000  0.000  0.000  1.000  0.000
  0.000  0.382  0.618  0.000  0.000
  0.000  0.618  0.382  0.000  0.000
  0.000  0.000  0.000  0.000  1.000
  1.000  0.000  0.000  0.000  0.000
    occupations:
  0.996 -0.000 -0.000  0.000  0.000
 -0.000  0.993 -0.000  0.000  0.000
 -0.000 -0.000  0.993  0.000  0.000
  0.000  0.000  0.000  1.002 -0.000
  0.000  0.000  0.000 -0.000  0.984
   spin  2
    eigenvalues:
  0.065  0.143  0.143  0.146  0.268
    eigenvectors:
  0.000  0.000  0.000  1.000  0.000
  0.000  0.390  0.610  0.000  0.000
  0.000  0.610  0.390  0.000  0.000
  1.000  0.000  0.000  0.000  0.000
  0.000  0.000  0.000  0.000  1.000
    occupations:
  0.146 -0.000 -0.000  0.000  0.000
 -0.000  0.143 -0.000  0.000  0.000
 -0.000 -0.000  0.143  0.000  0.000
  0.000  0.000  0.000  0.065 -0.000
  0.000  0.000  0.000 -0.000  0.268
atomic mag. moment =     4.203771
atom    3   Tr[ns(na)] (up, down, total) =   4.96845  0.76843  5.73688
   spin  1
    eigenvalues:
  0.984  0.993  0.993  0.997  1.002
    eigenvectors:
  0.000  0.000  0.000  1.000  0.000
  0.000  0.294  0.706  0.000  0.000
  0.000  0.706  0.294  0.000  0.000
  0.000  0.000  0.000  0.000  1.000
  1.000  0.000  0.000  0.000  0.000
    occupations:
  0.997 -0.000 -0.000  0.000  0.000
 -0.000  0.993 -0.000  0.000  0.000
 -0.000 -0.000  0.993  0.000  0.000
  0.000  0.000  0.000  1.002 -0.000
  0.000  0.000  0.000 -0.000  0.984
   spin  2
    eigenvalues:
  0.065  0.143  0.143  0.148  0.270
    eigenvectors:
  0.000  0.000  0.000  1.000  0.000
  0.000  0.276  0.724  0.000  0.000
  0.000  0.724  0.276  0.000  0.000
  1.000  0.000  0.000  0.000  0.000
  0.000  0.000  0.000  0.000  1.000
    occupations:
  0.148 -0.000 -0.000  0.000  0.000
 -0.000  0.143 -0.000  0.000  0.000
 -0.000 -0.000  0.143  0.000  0.000
  0.000  0.000  0.000  0.065 -0.000
  0.000  0.000  0.000 -0.000  0.270
atomic mag. moment =     4.200016
atom    4   Tr[ns(na)] (up, down, total) =   4.96924  0.76547  5.73470
   spin  1
    eigenvalues:
  0.984  0.993  0.993  0.996  1.002
    eigenvectors:
  0.000  0.000  0.000  1.000  0.000
  0.000  0.244  0.756  0.000  0.000
  0.000  0.756  0.244  0.000  0.000
  0.000  0.000  0.000  0.000  1.000
  1.000  0.000  0.000  0.000  0.000
    occupations:
  0.996 -0.000 -0.000  0.000  0.000
 -0.000  0.993 -0.000  0.000  0.000
 -0.000 -0.000  0.993  0.000  0.000
  0.000  0.000  0.000  1.002 -0.000
  0.000  0.000  0.000 -0.000  0.984
   spin  2
    eigenvalues:
  0.065  0.143  0.143  0.146  0.268
    eigenvectors:
  0.000  0.000  0.000  1.000  0.000
  0.000  0.346  0.654  0.000  0.000
  0.000  0.654  0.346  0.000  0.000
  1.000  0.000  0.000  0.000  0.000
  0.000  0.000  0.000  0.000  1.000
    occupations:
  0.146 -0.000 -0.000  0.000  0.000
 -0.000  0.143 -0.000  0.000  0.000
 -0.000 -0.000  0.143  0.000  0.000
  0.000  0.000  0.000  0.065 -0.000
  0.000  0.000  0.000 -0.000  0.268
atomic mag. moment =     4.203771
atom    5   Tr[ns(na)] (up, down, total) =   4.97255  0.73245  5.70501
   spin  1
    eigenvalues:
  0.985  0.994  0.994  0.997  1.002
    eigenvectors:
  0.000  0.000  0.000  1.000  0.000
  0.000  0.271  0.729  0.000  0.000
  0.000  0.729  0.271  0.000  0.000
  0.000  0.000  0.000  0.000  1.000
  1.000  0.000  0.000  0.000  0.000
    occupations:
  0.997 -0.000 -0.000  0.000  0.000
 -0.000  0.994 -0.000  0.000  0.000
 -0.000 -0.000  0.994  0.000  0.000
  0.000  0.000  0.000  1.002 -0.000
  0.000  0.000  0.000 -0.000  0.985
   spin  2
    eigenvalues:
  0.067  0.130  0.144  0.144  0.247
    eigenvectors:
  0.000  1.000  0.000  0.000  0.000
  0.000  0.000  0.327  0.673  0.000
  0.000  0.000  0.673  0.327  0.000
  1.000  0.000  0.000  0.000  0.000
  0.000  0.000  0.000  0.000  1.000
    occupations:
  0.130 -0.000 -0.000  0.000  0.000
 -0.000  0.144 -0.000  0.000  0.000
 -0.000 -0.000  0.144  0.000  0.000
  0.000  0.000  0.000  0.067 -0.000
  0.000  0.000  0.000 -0.000  0.247
atomic mag. moment =     4.240104
atom    6   Tr[ns(na)] (up, down, total) =   0.71894  4.97235  5.69129
   spin  1
    eigenvalues:
  0.065  0.121  0.144  0.144  0.245
    eigenvectors:
  0.000  1.000  0.000  0.000  0.000
  0.000  0.000  0.312  0.688  0.000
  0.000  0.000  0.688  0.312  0.000
  1.000  0.000  0.000  0.000  0.000
  0.000  0.000  0.000  0.000  1.000
    occupations:
  0.121 -0.000 -0.000  0.000  0.000
 -0.000  0.144 -0.000  0.000  0.000
 -0.000 -0.000  0.144  0.000  0.000
  0.000  0.000  0.000  0.065 -0.000
  0.000  0.000  0.000 -0.000  0.245
   spin  2
    eigenvalues:
  0.985  0.994  0.994  0.997  1.003
    eigenvectors:
  0.000  0.000  0.000  1.000  0.000
  0.000  0.348  0.652  0.000  0.000
  0.000  0.652  0.348  0.000  0.000
  0.000  0.000  0.000  0.000  1.000
  1.000  0.000  0.000  0.000  0.000
    occupations:
  0.997 -0.000 -0.000  0.000  0.000
 -0.000  0.994 -0.000  0.000  0.000
 -0.000 -0.000  0.994  0.000  0.000
  0.000  0.000  0.000  1.003 -0.000
  0.000  0.000  0.000 -0.000  0.985
atomic mag. moment =    -4.253405
atom    7   Tr[ns(na)] (up, down, total) =   4.97423  0.70549  5.67972
   spin  1
    eigenvalues:
  0.985  0.994  0.994  0.998  1.003
    eigenvectors:
  0.000  0.000  0.000  1.000  0.000
  0.000  0.275  0.725  0.000  0.000
  0.000  0.725  0.275  0.000  0.000
  0.000  0.000  0.000  0.000  1.000
  1.000  0.000  0.000  0.000  0.000
    occupations:
  0.998 -0.000 -0.000  0.000  0.000
 -0.000  0.994 -0.000  0.000  0.000
 -0.000 -0.000  0.994  0.000  0.000
  0.000  0.000  0.000  1.003 -0.000
  0.000  0.000  0.000 -0.000  0.985
   spin  2
    eigenvalues:
  0.067  0.109  0.145  0.145  0.239
    eigenvectors:
  0.000  1.000  0.000  0.000  0.000
  0.000  0.000  0.358  0.642  0.000
  0.000  0.000  0.642  0.358  0.000
  1.000  0.000  0.000  0.000  0.000
  0.000  0.000  0.000  0.000  1.000
    occupations:
  0.109 -0.000 -0.000  0.000  0.000
 -0.000  0.145 -0.000  0.000  0.000
 -0.000 -0.000  0.145  0.000  0.000
  0.000  0.000  0.000  0.067 -0.000
  0.000  0.000  0.000 -0.000  0.239
atomic mag. moment =     4.268737
atom    8   Tr[ns(na)] (up, down, total) =   0.71894  4.97235  5.69129
   spin  1
    eigenvalues:
  0.065  0.121  0.144  0.144  0.245
    eigenvectors:
  0.000  1.000  0.000  0.000  0.000
  0.000  0.000  0.323  0.677  0.000
  0.000  0.000  0.677  0.323  0.000
  1.000  0.000  0.000  0.000  0.000
  0.000  0.000  0.000  0.000  1.000
    occupations:
  0.121 -0.000 -0.000  0.000  0.000
 -0.000  0.144 -0.000  0.000  0.000
 -0.000 -0.000  0.144  0.000  0.000
  0.000  0.000  0.000  0.065 -0.000
  0.000  0.000  0.000 -0.000  0.245
   spin  2
    eigenvalues:
  0.985  0.994  0.994  0.997  1.003
    eigenvectors:
  0.000  0.000  0.000  1.000  0.000
  0.000  0.259  0.741  0.000  0.000
  0.000  0.741  0.259  0.000  0.000
  0.000  0.000  0.000  0.000  1.000
  1.000  0.000  0.000  0.000  0.000
    occupations:
  0.997 -0.000 -0.000  0.000  0.000
 -0.000  0.994 -0.000  0.000  0.000
 -0.000 -0.000  0.994  0.000  0.000
  0.000  0.000  0.000  1.003 -0.000
  0.000  0.000  0.000 -0.000  0.985
atomic mag. moment =    -4.253405
N of occupied +U levels =   45.678604
 --- exit write_ns ---

 ------ SPIN UP ------------

          k = 0.0000 0.0000 0.0000 ( 13925 PWs)   bands (ev):

   -66.8718 -66.7530 -66.7530 -66.6053 -66.6053 -66.5781 -62.2317 -62.2317
   -35.6391 -35.5875 -35.5875 -35.5160 -35.5160 -35.4732 -35.4732 -35.4732
   -35.4732 -35.3811 -35.3810 -35.3514 -35.3216 -35.3216 -35.3216 -35.3216
   -35.2959 -35.2959 -31.0536 -31.0536 -31.0501 -31.0501 -31.0501 -31.0501
     5.7434   5.8906   5.8977   6.2861   6.3921   7.0128   7.0142   7.6155
     8.2204   8.3818   8.3824   8.4365   8.4635   8.4792   8.5044   8.5782
     8.7122   8.7732   8.7997   8.8426   8.9112   9.0282   9.2025   9.2028
     9.2160   9.3777   9.4040   9.4437   9.5898   9.5972   9.7097   9.9018
     9.9372   9.9393   9.9401  10.0536  10.0711  10.1053  10.1056  10.1056
    10.1149  10.1699  10.1699  10.2024  10.2024  10.2127  10.3167  10.3365
    10.3365  10.3459  10.3459  10.4192  10.5380  10.5433  10.5433  10.5916
    10.5916  10.5961  10.5961  10.6087  10.6087  10.6147  10.6147  10.6181
    10.6661  10.6898  10.6898  10.7726  10.7726  10.7986  10.7986  10.8749
    10.9652  11.0251  11.0251  11.0417  11.0417  11.0728  11.1450  11.2152
    11.2539  11.2575  11.3069  11.3908  11.4467  11.4495  11.4495  11.5013
    11.5409  11.5409  11.5836  11.7104  11.7598  11.7986  11.8623  11.9340
    11.9340  11.9909  12.0016  12.0796  12.1036  12.1431  12.1591  12.1591
    12.2425  12.2567  12.3493  12.3493  12.5295  12.5595  12.5595  12.7138
    12.7647  12.8093  12.8093  12.8151  12.8891  13.0343  13.0645  13.1455
    13.1957  13.8681  14.2888  15.1683  15.3990  16.4792  16.8501  16.8501
    16.9022  16.9022  16.9246  16.9248  17.1121  17.1122  17.5457  17.5660
    18.1616  19.4862  19.5187  20.0402  20.0402  20.4032  20.4032  20.4162
    20.4162  21.3382

[...]

          k =-0.5000-0.5000 0.0000 ( 13964 PWs)   bands (ev):

[...]

 ------ SPIN DOWN ----------

[...]

          k = 0.3750-0.5000-0.0484 ( 13940 PWs)   bands (ev):

[...]

          k =-0.5000-0.5000-0.0484 ( 13992 PWs)   bands (ev):

   -66.8394 -66.8394 -62.2452 -62.1563 -62.1563 -62.0460 -62.0460 -62.0227
   -35.6051 -35.6051 -35.5685 -35.5685 -35.5685 -35.5685 -31.0794 -31.0794
   -31.0634 -30.9914 -30.9914 -30.9914 -30.9914 -30.9774 -30.9774 -30.8780
   -30.8780 -30.8780 -30.8780 -30.8776 -30.8776 -30.8568 -30.8568 -30.8505
     8.1508   8.1559   8.2319   8.3194   8.6083   8.6370   8.6790   8.7218
     8.9652   9.0483   9.0680   9.0695   9.2320   9.2320   9.2875   9.2875
     9.3147   9.3712   9.3809   9.3809   9.3841   9.3841   9.3931   9.4006
     9.5711   9.5711   9.5713   9.5713   9.8670   9.8724   9.8724   9.8750
     9.8750   9.9192   9.9192   9.9197   9.9197   9.9936  10.2615  10.2615
    10.3159  10.3159  10.5026  10.5740  10.6414  10.6460  10.7158  10.7213
    10.7388  10.7388  10.8409  10.8409  11.1440  11.1562  11.2073  11.2790
    11.2790  11.2847  11.3768  11.3769  11.4922  11.4922  11.8019  11.8019
    11.9195  11.9196  11.9470  11.9749  11.9749  12.0097  12.0097  12.0325
    12.0326  12.0373  12.0394  12.0773  12.0773  12.0876  12.0876  12.1254
    12.1254  12.1294  12.1393  12.1554  12.2024  12.2565  12.2586  12.2753
    12.2798  12.3480  13.3642  13.3988  13.4035  13.4310  13.4469  13.4502
    13.9014  13.9014  14.0589  14.0589  14.2717  14.2717  14.4396  14.4396
    14.6873  14.6873  14.8563  14.8563  15.8476  15.8476  15.9658  15.9658
    16.5728  16.6298  16.7702  16.8272  16.8451  16.9639  17.0332  17.1572
    17.1869  17.1869  17.3489  17.3489  17.7737  17.8000  17.8839  17.8893
    17.8893  17.9424  17.9424  17.9618  18.0064  18.0181  18.0848  18.0848
    18.2140  18.2140  18.2373  18.3862  18.4673  18.5601  18.7214  18.7845
    18.8979  18.8979

     the Fermi energy is    15.2701 ev

!    total energy              =  -14694.00274139 Ry
     Harris-Foulkes estimate   =  -14694.00273552 Ry
     estimated scf accuracy    <       0.00000081 Ry

     total all-electron energy =   -626921.598463 Ry

     The total energy is the sum of the following terms:

     one-electron contribution =    -714.49129626 Ry
     hartree contribution      =     656.54393977 Ry
     xc contribution           =    -737.87582532 Ry
     ewald contribution        =   -2196.78933708 Ry
     Hubbard energy            =       0.45109250 Ry
     one-center paw contrib.   =  -11701.84131500 Ry

     total magnetization       =    17.23 Bohr mag/cell
     absolute magnetization    =    37.19 Bohr mag/cell

     convergence has been achieved in  24 iterations

     Writing output data file mnau2.save/

     General routines

     Parallel routines

     Hubbard U routines

   This run was terminated on:  23:56: 9   6Apr2019

   JOB DONE.