     Program PWSCF v.6.3MaX starts on  6Apr2019 at 21: 6:13

     R & G space division:  proc/nbgrp/npool/nimage =      32
     Waiting for input...
     Reading input from standard input

     Current dimensions of program PWSCF are:
     Max number of different atomic species (ntypx) = 10
     Max number of k-points (npk) =  40000
     Max angular momentum in pseudopotentials (lmaxx) =  3
               file Mn.pbe-spn-kjpaw_psl.0.3.1.UPF: wavefunction(s)  3P 3D renormalized
               file Mn.pbe-spn-kjpaw_psl.0.3.1.UPF: wavefunction(s)  3P 3D renormalized
               file Au.pbe-dn-kjpaw_psl.0.1.UPF: wavefunction(s)  6S 6P 5D renormalized

     bravais-lattice index     =            0
     lattice parameter (alat)  =       6.4153  a.u.
     unit-cell volume          =    2724.7774 (a.u.)^3
     number of atoms/cell      =           24
     number of atomic types    =            3
     number of electrons       =       296.00
     number of Kohn-Sham states=          178
     kinetic-energy cutoff     =      45.0000  Ry
     charge density cutoff     =     400.0000  Ry
     convergence threshold     =      1.0E-06
     mixing beta               =       0.1000
     number of iterations used =            8  plain     mixing
     Exchange-correlation      = SLA PW PBX PBC ( 1  4  3  4 0 0)

     celldm(1)=   6.415315  celldm(2)=   0.000000  celldm(3)=   0.000000
     celldm(4)=   0.000000  celldm(5)=   0.000000  celldm(6)=   0.000000

     crystal axes: (cart. coord. in units of alat)
               a(1) = (   1.000000   0.000000   0.000000 )
               a(2) = (   0.000000   1.000000   0.000000 )
               a(3) = (   0.000000   0.000000  10.319937 )

     reciprocal axes: (cart. coord. in units 2 pi/alat)
               b(1) = (  1.000000  0.000000  0.000000 )
               b(2) = (  0.000000  1.000000  0.000000 )
               b(3) = (  0.000000  0.000000  0.096900 )

     PseudoPot. # 1 for Mn read from file:
     ./pseudo/Mn.pbe-spn-kjpaw_psl.0.3.1.UPF
     MD5 check sum: 7b43a3fb0e93e198b8dd8488d8cf503e
     Pseudo is Projector augmented-wave + core cor, Zval = 15.0
     Generated using "atomic" code by A. Dal Corso v.5.0.99 svn rev. 10869
     Shape of augmentation charge: PSQ
     Using radial grid of 1187 points,  6 beta functions with:
                l(1) =   0
                l(2) =   0
                l(3) =   1
                l(4) =   1
                l(5) =   2
                l(6) =   2
     Q(r) pseudized with 0 coefficients

     PseudoPot. # 2 for Mn read from file:
     ./pseudo/Mn.pbe-spn-kjpaw_psl.0.3.1.UPF
     MD5 check sum: 7b43a3fb0e93e198b8dd8488d8cf503e
     Pseudo is Projector augmented-wave + core cor, Zval = 15.0
     Generated using "atomic" code by A. Dal Corso v.5.0.99 svn rev. 10869
     Shape of augmentation charge: PSQ
     Using radial grid of 1187 points,  6 beta functions with:
                l(1) =   0
                l(2) =   0
                l(3) =   1
                l(4) =   1
                l(5) =   2
                l(6) =   2
     Q(r) pseudized with 0 coefficients

     PseudoPot. # 3 for Au read from file:
     ./pseudo/Au.pbe-dn-kjpaw_psl.0.1.UPF
     MD5 check sum: be11e2e8e535ebe2b3ccfb4f88f554cb
     Pseudo is Projector augmented-wave + core cor, Zval = 11.0
     Generated using "atomic" code by A. Dal Corso v.5.0.2 svn rev. 9415
     Shape of augmentation charge: PSQ
     Using radial grid of 1279 points,  6 beta functions with:
                l(1) =   0
                l(2) =   0
                l(3) =   1
                l(4) =   1
                l(5) =   2
                l(6) =   2
     Q(r) pseudized with 0 coefficients

     atomic species   valence    mass     pseudopotential
        Mn1           15.00    54.93800     Mn( 1.00)
        Mn2           15.00    54.93800     Mn( 1.00)
        Au            11.00   196.96600     Au( 1.00)

     Starting magnetic structure
     atomic species   magnetization
        Mn1          0.800
        Mn2         -0.800
        Au           0.000

     Full LDA+U calculation (l_max = 2) with parameters (eV):
     U(  1) =   3.1200   J(  1) =   0.7000   B(  1) =   0.0803
     U(  2) =   3.1200   J(  2) =   0.7000   B(  2) =   0.0803

      8 Sym. Ops. (no inversion) found

   Cartesian axes

     site n.     atom                  positions (alat units)
         1           Mn1 tau(   1) = (   0.0000000   0.0000000   0.0000000  )
         2           Mn1 tau(   2) = (   0.5000000   0.5000000   1.2899921  )
         3           Mn1 tau(   3) = (   0.0000000   0.0000000   2.5799843  )
         4           Mn1 tau(   4) = (   0.5000000   0.5000000   3.8699764  )
         5           Mn2 tau(   5) = (   0.0000000   0.0000000   5.1599686  )
         6           Mn1 tau(   6) = (   0.5000000   0.5000000   6.4499607  )
         7           Mn1 tau(   7) = (   0.0000000   0.0000000   7.7399528  )
         8           Mn2 tau(   8) = (   0.5000000   0.5000000   9.0299450  )
         9           Au  tau(   9) = (   0.5000000   0.5000000   0.4127975  )
        10           Au  tau(  10) = (   0.0000000   0.0000000   0.8771947  )
        11           Au  tau(  11) = (   0.0000000   0.0000000   1.7027896  )
        12           Au  tau(  12) = (   0.5000000   0.5000000   2.1671868  )
        13           Au  tau(  13) = (   0.5000000   0.5000000   2.9927818  )
        14           Au  tau(  14) = (   0.0000000   0.0000000   3.4571789  )
        15           Au  tau(  15) = (   0.0000000   0.0000000   4.2827739  )
        16           Au  tau(  16) = (   0.5000000   0.5000000   4.7471711  )
        17           Au  tau(  17) = (   0.5000000   0.5000000   5.5727660  )
        18           Au  tau(  18) = (   0.0000000   0.0000000   6.0371632  )
        19           Au  tau(  19) = (   0.0000000   0.0000000   6.8627582  )
        20           Au  tau(  20) = (   0.5000000   0.5000000   7.3271553  )
        21           Au  tau(  21) = (   0.5000000   0.5000000   8.1527503  )
        22           Au  tau(  22) = (   0.0000000   0.0000000   8.6171475  )
        23           Au  tau(  23) = (   0.0000000   0.0000000   9.4427424  )
        24           Au  tau(  24) = (   0.5000000   0.5000000   9.9071396  )

     number of k points=    30 (tetrahedron method)
                       cart. coord. in units 2pi/alat
        k(    1) = (   0.0000000   0.0000000   0.0000000), wk =   0.0078125
        k(    2) = (   0.0000000   0.0000000  -0.0484499), wk =   0.0078125
        k(    3) = (   0.0000000   0.1250000   0.0000000), wk =   0.0312500
        k(    4) = (   0.0000000   0.1250000  -0.0484499), wk =   0.0312500
        k(    5) = (   0.0000000   0.2500000   0.0000000), wk =   0.0312500
        k(    6) = (   0.0000000   0.2500000  -0.0484499), wk =   0.0312500
        k(    7) = (   0.0000000   0.3750000   0.0000000), wk =   0.0312500
        k(    8) = (   0.0000000   0.3750000  -0.0484499), wk =   0.0312500
        k(    9) = (   0.0000000  -0.5000000   0.0000000), wk =   0.0156250
        k(   10) = (   0.0000000  -0.5000000  -0.0484499), wk =   0.0156250
        k(   11) = (   0.1250000   0.1250000   0.0000000), wk =   0.0312500
        k(   12) = (   0.1250000   0.1250000  -0.0484499), wk =   0.0312500
        k(   13) = (   0.1250000   0.2500000   0.0000000), wk =   0.0625000
        k(   14) = (   0.1250000   0.2500000  -0.0484499), wk =   0.0625000
        k(   15) = (   0.1250000   0.3750000   0.0000000), wk =   0.0625000
        k(   16) = (   0.1250000   0.3750000  -0.0484499), wk =   0.0625000
        k(   17) = (   0.1250000  -0.5000000   0.0000000), wk =   0.0312500
        k(   18) = (   0.1250000  -0.5000000  -0.0484499), wk =   0.0312500
        k(   19) = (   0.2500000   0.2500000   0.0000000), wk =   0.0312500
        k(   20) = (   0.2500000   0.2500000  -0.0484499), wk =   0.0312500
        k(   21) = (   0.2500000   0.3750000   0.0000000), wk =   0.0625000
        k(   22) = (   0.2500000   0.3750000  -0.0484499), wk =   0.0625000
        k(   23) = (   0.2500000  -0.5000000   0.0000000), wk =   0.0312500
        k(   24) = (   0.2500000  -0.5000000  -0.0484499), wk =   0.0312500
        k(   25) = (   0.3750000   0.3750000   0.0000000), wk =   0.0312500
        k(   26) = (   0.3750000   0.3750000  -0.0484499), wk =   0.0312500
        k(   27) = (   0.3750000  -0.5000000   0.0000000), wk =   0.0312500
        k(   28) = (   0.3750000  -0.5000000  -0.0484499), wk =   0.0312500
        k(   29) = (  -0.5000000  -0.5000000   0.0000000), wk =   0.0078125
        k(   30) = (  -0.5000000  -0.5000000  -0.0484499), wk =   0.0078125

     Check: negative/imaginary core charge=   -0.000006    0.000000

     Initial potential from superposition of free atoms

     starting charge  295.99426, renormalised to  296.00000
     Number of +U iterations with fixed ns =  0
     Starting occupations:
 --- enter write_ns ---
 LDA+U parameters:
U(  1) =   3.1200   J(  1) =   0.7000   B(  1) =   0.0803
U(  2) =   3.1200   J(  2) =   0.7000   B(  2) =   0.0803
atom    1   Tr[ns(na)] (up, down, total) =   5.00000  0.00000  5.00000
   spin  1
    eigenvalues:
  1.000  1.000  1.000  1.000  1.000
    eigenvectors:
  1.000  0.000  0.000  0.000  0.000
  0.000  1.000  0.000  0.000  0.000
  0.000  0.000  1.000  0.000  0.000
  0.000  0.000  0.000  1.000  0.000
  0.000  0.000  0.000  0.000  1.000
    occupations:
  1.000  0.000  0.000  0.000  0.000
  0.000  1.000  0.000  0.000  0.000
  0.000  0.000  1.000  0.000  0.000
  0.000  0.000  0.000  1.000  0.000
  0.000  0.000  0.000  0.000  1.000
   spin  2
    eigenvalues:
  0.000  0.000  0.000  0.000  0.000
    eigenvectors:
  1.000  0.000  0.000  0.000  0.000
  0.000  1.000  0.000  0.000  0.000
  0.000  0.000  1.000  0.000  0.000
  0.000  0.000  0.000  1.000  0.000
  0.000  0.000  0.000  0.000  1.000
    occupations:
  0.000  0.000  0.000  0.000  0.000
  0.000  0.000  0.000  0.000  0.000
  0.000  0.000  0.000  0.000  0.000
  0.000  0.000  0.000  0.000  0.000
  0.000  0.000  0.000  0.000  0.000
atomic mag. moment =     5.000000
atom    2   Tr[ns(na)] (up, down, total) =   5.00000  0.00000  5.00000
   spin  1
    eigenvalues:
  1.000  1.000  1.000  1.000  1.000
    eigenvectors:
  1.000  0.000  0.000  0.000  0.000
  0.000  1.000  0.000  0.000  0.000
  0.000  0.000  1.000  0.000  0.000
  0.000  0.000  0.000  1.000  0.000
  0.000  0.000  0.000  0.000  1.000
    occupations:
  1.000  0.000  0.000  0.000  0.000
  0.000  1.000  0.000  0.000  0.000
  0.000  0.000  1.000  0.000  0.000
  0.000  0.000  0.000  1.000  0.000
  0.000  0.000  0.000  0.000  1.000
   spin  2
    eigenvalues:
  0.000  0.000  0.000  0.000  0.000
    eigenvectors:
  1.000  0.000  0.000  0.000  0.000
  0.000  1.000  0.000  0.000  0.000
  0.000  0.000  1.000  0.000  0.000
  0.000  0.000  0.000  1.000  0.000
  0.000  0.000  0.000  0.000  1.000
    occupations:
  0.000  0.000  0.000  0.000  0.000
  0.000  0.000  0.000  0.000  0.000
  0.000  0.000  0.000  0.000  0.000
  0.000  0.000  0.000  0.000  0.000
  0.000  0.000  0.000  0.000  0.000
atomic mag. moment =     5.000000
atom    3   Tr[ns(na)] (up, down, total) =   5.00000  0.00000  5.00000
   spin  1
    eigenvalues:
[...]
   spin  1
    eigenvalues:
  0.053  0.075  0.081  0.081  0.125
    eigenvectors:
  0.000  1.000  0.000  0.000  0.000
  0.000  0.000  0.114  0.886  0.000
  0.000  0.000  0.886  0.114  0.000
  1.000  0.000  0.000  0.000  0.000
  0.000  0.000  0.000  0.000  1.000
    occupations:
  0.075 -0.000 -0.000  0.000  0.000
 -0.000  0.081 -0.000  0.000  0.000
 -0.000 -0.000  0.081  0.000  0.000
  0.000  0.000  0.000  0.053 -0.000
  0.000  0.000  0.000 -0.000  0.125
   spin  2
    eigenvalues:
  1.003  1.003  1.003  1.004  1.004
    eigenvectors:
  0.000  0.000  0.000  1.000  0.000
  0.000  0.109  0.891  0.000  0.000
  0.000  0.891  0.109  0.000  0.000
  0.000  0.000  0.000  0.000  1.000
  1.000  0.000  0.000  0.000  0.000
    occupations:
  1.004 -0.000 -0.000  0.000  0.000
 -0.000  1.003 -0.000  0.000  0.000
 -0.000 -0.000  1.003  0.000  0.000
  0.000  0.000  0.000  1.004 -0.000
  0.000  0.000  0.000 -0.000  1.003
atomic mag. moment =    -4.602048
N of occupied +U levels =   43.413999
 --- exit write_ns ---

     total energy              =  -14687.27614876 Ry
     Harris-Foulkes estimate   =  -14685.81562008 Ry
     estimated scf accuracy    <      11.55763431 Ry

     total magnetization       =    20.15 Bohr mag/cell
     absolute magnetization    =    41.56 Bohr mag/cell

     iteration #  2     ecut=    45.00 Ry     beta= 0.10
     Davidson diagonalization with overlap
     ethr =  3.90E-03,  avg # of iterations =  1.0

[...]

     total energy              =  -14694.00517230 Ry
     Harris-Foulkes estimate   =  -14694.00517192 Ry
     estimated scf accuracy    <       0.00000107 Ry

[...]

     iteration # 33     ecut=    45.00 Ry     beta= 0.10
     Davidson diagonalization with overlap
     ethr =  3.63E-10,  avg # of iterations =  1.8

     Magnetic moment per site:
     atom:    1    charge:   13.5462    magn:    4.2457    constr:    0.0000
     atom:    2    charge:   13.5526    magn:    4.2016    constr:    0.0000
     atom:    3    charge:   13.5527    magn:    4.2015    constr:    0.0000
     atom:    4    charge:   13.5462    magn:    4.2457    constr:    0.0000
     atom:    5    charge:   13.5468    magn:   -4.2420    constr:    0.0000
     atom:    6    charge:   13.5457    magn:    4.2470    constr:    0.0000
     atom:    7    charge:   13.5457    magn:    4.2469    constr:    0.0000
     atom:    8    charge:   13.5470    magn:   -4.2421    constr:    0.0000
     atom:    9    charge:    9.1229    magn:    0.0325    constr:    0.0000
     atom:   10    charge:    9.1220    magn:    0.0313    constr:    0.0000
     atom:   11    charge:    9.1205    magn:    0.0305    constr:    0.0000
     atom:   12    charge:    9.1204    magn:    0.0305    constr:    0.0000
     atom:   13    charge:    9.1219    magn:    0.0313    constr:    0.0000
     atom:   14    charge:    9.1230    magn:    0.0326    constr:    0.0000
     atom:   15    charge:    9.1242    magn:    0.0420    constr:    0.0000
     atom:   16    charge:    9.1239    magn:   -0.0394    constr:    0.0000
     atom:   17    charge:    9.1229    magn:   -0.0391    constr:    0.0000
     atom:   18    charge:    9.1238    magn:    0.0458    constr:    0.0000
     atom:   19    charge:    9.1235    magn:    0.0379    constr:    0.0000
     atom:   20    charge:    9.1234    magn:    0.0379    constr:    0.0000
     atom:   21    charge:    9.1238    magn:    0.0457    constr:    0.0000
     atom:   22    charge:    9.1231    magn:   -0.0391    constr:    0.0000
     atom:   23    charge:    9.1241    magn:   -0.0394    constr:    0.0000
     atom:   24    charge:    9.1241    magn:    0.0419    constr:    0.0000

     End of self-consistent calculation
 --- enter write_ns ---
 LDA+U parameters:
U(  1) =   3.1200   J(  1) =   0.7000   B(  1) =   0.0803
U(  2) =   3.1200   J(  2) =   0.7000   B(  2) =   0.0803
atom    1   Tr[ns(na)] (up, down, total) =   4.97322  0.72766  5.70088
   spin  1
    eigenvalues:
  0.985  0.994  0.994  0.997  1.002
    eigenvectors:
  0.000  0.000  0.000  1.000  0.000
  0.000  0.107  0.893  0.000  0.000
  0.000  0.893  0.107  0.000  0.000
  0.000  0.000  0.000  0.000  1.000
  1.000  0.000  0.000  0.000  0.000
    occupations:
  0.997 -0.000 -0.000  0.000  0.000
 -0.000  0.994 -0.000  0.000  0.000
 -0.000 -0.000  0.994  0.000  0.000
  0.000  0.000  0.000  1.002 -0.000
  0.000  0.000  0.000 -0.000  0.985
   spin  2
    eigenvalues:
  0.067  0.123  0.145  0.145  0.247
    eigenvectors:
  0.000  1.000  0.000  0.000  0.000
  0.000  0.000  0.130  0.870  0.000
  0.000  0.000  0.870  0.130  0.000
  1.000  0.000  0.000  0.000  0.000
  0.000  0.000  0.000  0.000  1.000
    occupations:
  0.123 -0.000 -0.000  0.000  0.000
 -0.000  0.145 -0.000  0.000  0.000
 -0.000 -0.000  0.145  0.000  0.000
  0.000  0.000  0.000  0.067 -0.000
  0.000  0.000  0.000 -0.000  0.247
atomic mag. moment =     4.245557
atom    2   Tr[ns(na)] (up, down, total) =   4.96967  0.76256  5.73222
   spin  1
    eigenvalues:
  0.984  0.993  0.993  0.997  1.002
    eigenvectors:
  0.000  0.000  0.000  1.000  0.000
  0.000  0.100  0.900  0.000  0.000
  0.000  0.900  0.100  0.000  0.000
  0.000  0.000  0.000  0.000  1.000
  1.000  0.000  0.000  0.000  0.000
    occupations:
  0.997 -0.000 -0.000  0.000  0.000
 -0.000  0.993 -0.000  0.000  0.000
 -0.000 -0.000  0.993  0.000  0.000
  0.000  0.000  0.000  1.002 -0.000
  0.000  0.000  0.000 -0.000  0.984
   spin  2
    eigenvalues:
  0.064  0.141  0.144  0.144  0.269
    eigenvectors:
  0.000  1.000  0.000  0.000  0.000
  0.000  0.000  0.124  0.876  0.000
  0.000  0.000  0.876  0.124  0.000
  1.000  0.000  0.000  0.000  0.000
  0.000  0.000  0.000  0.000  1.000
    occupations:
  0.141 -0.000 -0.000  0.000  0.000
 -0.000  0.144 -0.000  0.000  0.000
 -0.000 -0.000  0.144  0.000  0.000
  0.000  0.000  0.000  0.064 -0.000
  0.000  0.000  0.000 -0.000  0.269
atomic mag. moment =     4.207110
atom    3   Tr[ns(na)] (up, down, total) =   4.96967  0.76274  5.73241
   spin  1
    eigenvalues:
  0.984  0.993  0.993  0.997  1.002
    eigenvectors:
  0.000  0.000  0.000  1.000  0.000
  0.000  0.114  0.886  0.000  0.000
  0.000  0.886  0.114  0.000  0.000
  0.000  0.000  0.000  0.000  1.000
  1.000  0.000  0.000  0.000  0.000
    occupations:
  0.997 -0.000 -0.000  0.000  0.000
 -0.000  0.993 -0.000  0.000  0.000
 -0.000 -0.000  0.993  0.000  0.000
  0.000  0.000  0.000  1.002 -0.000
  0.000  0.000  0.000 -0.000  0.984
   spin  2
    eigenvalues:
  0.064  0.141  0.144  0.144  0.270
    eigenvectors:
  0.000  1.000  0.000  0.000  0.000
  0.000  0.000  0.143  0.857  0.000
  0.000  0.000  0.857  0.143  0.000
  1.000  0.000  0.000  0.000  0.000
  0.000  0.000  0.000  0.000  1.000
    occupations:
  0.141 -0.000 -0.000  0.000  0.000
 -0.000  0.144 -0.000  0.000  0.000
 -0.000 -0.000  0.144  0.000  0.000
  0.000  0.000  0.000  0.064 -0.000
  0.000  0.000  0.000 -0.000  0.270
atomic mag. moment =     4.206936
atom    4   Tr[ns(na)] (up, down, total) =   4.97322  0.72759  5.70081
   spin  1
    eigenvalues:
  0.985  0.994  0.994  0.997  1.002
    eigenvectors:
  0.000  0.000  0.000  1.000  0.000
  0.000  0.121  0.879  0.000  0.000
  0.000  0.879  0.121  0.000  0.000
  0.000  0.000  0.000  0.000  1.000
  1.000  0.000  0.000  0.000  0.000
    occupations:
  0.997 -0.000 -0.000  0.000  0.000
 -0.000  0.994 -0.000  0.000  0.000
 -0.000 -0.000  0.994  0.000  0.000
  0.000  0.000  0.000  1.002 -0.000
  0.000  0.000  0.000 -0.000  0.985
   spin  2
    eigenvalues:
  0.067  0.123  0.145  0.145  0.247
    eigenvectors:
  0.000  1.000  0.000  0.000  0.000
  0.000  0.000  0.138  0.862  0.000
  0.000  0.000  0.862  0.138  0.000
  1.000  0.000  0.000  0.000  0.000
  0.000  0.000  0.000  0.000  1.000
    occupations:
  0.123 -0.000 -0.000  0.000  0.000
 -0.000  0.145 -0.000  0.000  0.000
 -0.000 -0.000  0.145  0.000  0.000
  0.000  0.000  0.000  0.067 -0.000
  0.000  0.000  0.000 -0.000  0.247
atomic mag. moment =     4.245626
atom    5   Tr[ns(na)] (up, down, total) =   0.73301  4.97014  5.70315
   spin  1
    eigenvalues:
  0.064  0.125  0.145  0.145  0.254
    eigenvectors:
  0.000  1.000  0.000  0.000  0.000
  0.000  0.000  0.083  0.917  0.000
  0.000  0.000  0.917  0.083  0.000
  1.000  0.000  0.000  0.000  0.000
  0.000  0.000  0.000  0.000  1.000
    occupations:
  0.125 -0.000 -0.000  0.000  0.000
 -0.000  0.145 -0.000  0.000  0.000
 -0.000 -0.000  0.145  0.000  0.000
  0.000  0.000  0.000  0.064 -0.000
  0.000  0.000  0.000 -0.000  0.254
   spin  2
    eigenvalues:
  0.984  0.994  0.994  0.996  1.003
    eigenvectors:
  0.000  0.000  0.000  1.000  0.000
  0.000  0.102  0.898  0.000  0.000
  0.000  0.898  0.102  0.000  0.000
  0.000  0.000  0.000  0.000  1.000
  1.000  0.000  0.000  0.000  0.000
    occupations:
  0.996 -0.000 -0.000  0.000  0.000
 -0.000  0.994 -0.000  0.000  0.000
 -0.000 -0.000  0.994  0.000  0.000
  0.000  0.000  0.000  1.003 -0.000
  0.000  0.000  0.000 -0.000  0.984
atomic mag. moment =    -4.237135
atom    6   Tr[ns(na)] (up, down, total) =   4.97333  0.72727  5.70060
   spin  1
    eigenvalues:
  0.985  0.994  0.994  0.997  1.002
    eigenvectors:
  0.000  0.000  0.000  1.000  0.000
  0.000  0.132  0.868  0.000  0.000
  0.000  0.868  0.132  0.000  0.000
  0.000  0.000  0.000  0.000  1.000
  1.000  0.000  0.000  0.000  0.000
    occupations:
  0.997 -0.000 -0.000  0.000  0.000
 -0.000  0.994 -0.000  0.000  0.000
 -0.000 -0.000  0.994  0.000  0.000
  0.000  0.000  0.000  1.002 -0.000
  0.000  0.000  0.000 -0.000  0.985
   spin  2
    eigenvalues:
  0.066  0.121  0.146  0.146  0.248
    eigenvectors:
  0.000  1.000  0.000  0.000  0.000
  0.000  0.000  0.141  0.859  0.000
  0.000  0.000  0.859  0.141  0.000
  1.000  0.000  0.000  0.000  0.000
  0.000  0.000  0.000  0.000  1.000
    occupations:
  0.121 -0.000 -0.000  0.000  0.000
 -0.000  0.146 -0.000  0.000  0.000
 -0.000 -0.000  0.146  0.000  0.000
  0.000  0.000  0.000  0.066 -0.000
  0.000  0.000  0.000 -0.000  0.248
atomic mag. moment =     4.246059
atom    7   Tr[ns(na)] (up, down, total) =   4.97333  0.72743  5.70076
   spin  1
    eigenvalues:
  0.985  0.994  0.994  0.997  1.002
    eigenvectors:
  0.000  0.000  0.000  1.000  0.000
  0.000  0.132  0.868  0.000  0.000
  0.000  0.868  0.132  0.000  0.000
  0.000  0.000  0.000  0.000  1.000
  1.000  0.000  0.000  0.000  0.000
    occupations:
  0.997 -0.000 -0.000  0.000  0.000
 -0.000  0.994 -0.000  0.000  0.000
 -0.000 -0.000  0.994  0.000  0.000
  0.000  0.000  0.000  1.002 -0.000
  0.000  0.000  0.000 -0.000  0.985
   spin  2
    eigenvalues:
  0.066  0.121  0.146  0.146  0.248
    eigenvectors:
  0.000  1.000  0.000  0.000  0.000
  0.000  0.000  0.149  0.851  0.000
  0.000  0.000  0.851  0.149  0.000
  1.000  0.000  0.000  0.000  0.000
  0.000  0.000  0.000  0.000  1.000
    occupations:
  0.121 -0.000 -0.000  0.000  0.000
 -0.000  0.146 -0.000  0.000  0.000
 -0.000 -0.000  0.146  0.000  0.000
  0.000  0.000  0.000  0.066 -0.000
  0.000  0.000  0.000 -0.000  0.248
atomic mag. moment =     4.245898
atom    8   Tr[ns(na)] (up, down, total) =   0.73294  4.97015  5.70309
   spin  1
    eigenvalues:
  0.064  0.125  0.145  0.145  0.254
    eigenvectors:
  0.000  1.000  0.000  0.000  0.000
  0.000  0.000  0.154  0.846  0.000
  0.000  0.000  0.846  0.154  0.000
  1.000  0.000  0.000  0.000  0.000
  0.000  0.000  0.000  0.000  1.000
    occupations:
  0.125 -0.000 -0.000  0.000  0.000
 -0.000  0.145 -0.000  0.000  0.000
 -0.000 -0.000  0.145  0.000  0.000
  0.000  0.000  0.000  0.064 -0.000
  0.000  0.000  0.000 -0.000  0.254
   spin  2
    eigenvalues:
  0.984  0.994  0.994  0.996  1.003
    eigenvectors:
  0.000  0.000  0.000  1.000  0.000
  0.000  0.124  0.876  0.000  0.000
  0.000  0.876  0.124  0.000  0.000
  0.000  0.000  0.000  0.000  1.000
  1.000  0.000  0.000  0.000  0.000
    occupations:
  0.996 -0.000 -0.000  0.000  0.000
 -0.000  0.994 -0.000  0.000  0.000
 -0.000 -0.000  0.994  0.000  0.000
  0.000  0.000  0.000  1.003 -0.000
  0.000  0.000  0.000 -0.000  0.984
atomic mag. moment =    -4.237210
N of occupied +U levels =   45.673924
 --- exit write_ns ---

 ------ SPIN UP ------------

          k = 0.0000 0.0000 0.0000 ( 13925 PWs)   bands (ev):

   -66.7657 -66.7656 -66.7639 -66.7635 -66.6007 -66.6001 -62.2082 -62.2082
   -35.5340 -35.5337 -35.5325 -35.5324 -35.4838 -35.4838 -35.4837 -35.4837
   -35.4802 -35.4802 -35.4799 -35.4799 -35.3792 -35.3786 -35.3155 -35.3155
   -35.3149 -35.3149 -31.0332 -31.0332 -31.0254 -31.0254 -31.0254 -31.0254
     5.7404   5.8812   5.8995   6.3330   6.3375   6.9741   7.0492   7.6125
     8.2161   8.3784   8.3831   8.4024   8.4385   8.4666   8.5107   8.6749
     8.7053   8.7585   8.7695   8.8274   8.9234   8.9637   9.1523   9.2333
     9.2548   9.3756   9.4387   9.4725   9.5036   9.6243   9.6968   9.8661
     9.8974   9.9069   9.9571  10.0475  10.0967  10.1173  10.1173  10.1306
    10.1327  10.1449  10.1568  10.1568  10.2003  10.2003  10.3361  10.3361
    10.3408  10.3408  10.3659  10.4746  10.5318  10.5618  10.5618  10.5793
    10.5807  10.5807  10.6016  10.6016  10.6027  10.6027  10.6080  10.6080
    10.6637  10.6853  10.6853  10.7257  10.7257  10.7939  10.7939  10.8933
    10.9032  11.0127  11.0127  11.0393  11.0393  11.0813  11.1266  11.2158
    11.2336  11.2516  11.2643  11.3516  11.4135  11.4135  11.5804  11.5804
    11.5850  11.6089  11.6286  11.6340  11.7008  11.7409  11.8598  11.9376
    11.9717  11.9717  12.0016  12.0416  12.0416  12.0719  12.0895  12.1476
    12.2355  12.2399  12.4419  12.4419  12.5504  12.5511  12.5511  12.6573
    12.7670  12.7676  12.7676  12.8141  12.9650  12.9763  13.0245  13.1246
    13.2642  13.9790  14.0784  15.1687  15.5042  16.3951  16.8926  16.8926
    16.9007  16.9007  16.9564  16.9564  17.1042  17.1045  17.5501  17.5614
    18.2008  19.3859  19.5907  20.0364  20.0364  20.3869  20.3869  20.4243
    20.4243  21.3824

[...]

          k =-0.5000-0.5000 0.0000 ( 13964 PWs)   bands (ev):

[...]

 ------ SPIN DOWN ----------

[...]

          k = 0.3750-0.5000-0.0484 ( 13940 PWs)   bands (ev):

[...]

          k =-0.5000-0.5000-0.0484 ( 13992 PWs)   bands (ev):

   -66.7980 -66.7980 -62.1630 -62.1629 -62.1607 -62.1604 -62.0384 -62.0379
   -35.5694 -35.5694 -35.5248 -35.5248 -35.5248 -35.5248 -30.9982 -30.9982
   -30.9981 -30.9981 -30.9937 -30.9937 -30.9934 -30.9934 -30.9854 -30.9851
   -30.9840 -30.9839 -30.8707 -30.8707 -30.8701 -30.8701 -30.8693 -30.8688
     8.1994   8.1994   8.2470   8.2472   8.6346   8.6347   8.7028   8.7028
     8.9959   8.9959   9.0802   9.0802   9.2547   9.2547   9.2746   9.2746
     9.3481   9.3481   9.3794   9.3794   9.3872   9.3872   9.3927   9.3927
     9.5696   9.5696   9.5759   9.5759   9.8749   9.8749   9.8758   9.8758
     9.9424   9.9424   9.9426   9.9426   9.9518   9.9518  10.2741  10.2741
    10.3034  10.3034  10.5554  10.5554  10.6403  10.6404  10.7060  10.7061
    10.7381  10.7381  10.8727  10.8727  11.1644  11.1645  11.2453  11.2453
    11.2804  11.2805  11.4143  11.4143  11.4583  11.4583  11.9216  11.9216
    11.9267  11.9269  11.9734  11.9734  11.9840  11.9842  12.0171  12.0173
    12.0245  12.0245  12.0386  12.0388  12.0770  12.0771  12.0844  12.0846
    12.1325  12.1326  12.1495  12.1497  12.2168  12.2169  12.2709  12.2710
    12.3251  12.3252  13.3940  13.3940  13.4078  13.4079  13.4456  13.4458
    13.9375  13.9375  14.0033  14.0033  14.2949  14.2949  14.5054  14.5054
    14.6270  14.6270  14.8200  14.8200  15.9105  15.9105  15.9271  15.9271
    16.6220  16.6221  16.7925  16.7926  16.9163  16.9165  17.1074  17.1075
    17.2102  17.2102  17.3260  17.3260  17.7909  17.7909  17.8076  17.8077
    17.8982  17.8983  18.0040  18.0040  18.0817  18.0818  18.0920  18.0923
    18.2275  18.2280  18.2348  18.2349  18.4704  18.4705  18.8458  18.8458
    18.9060  18.9060

     the Fermi energy is    15.2745 ev

!    total energy              =  -14694.00517387 Ry
     Harris-Foulkes estimate   =  -14694.00517244 Ry
     estimated scf accuracy    <       0.00000088 Ry

     total all-electron energy =   -626921.600896 Ry

     The total energy is the sum of the following terms:

     one-electron contribution =    -714.48609480 Ry
     hartree contribution      =     656.53876287 Ry
     xc contribution           =    -737.87742525 Ry
     ewald contribution        =   -2196.78933708 Ry
     Hubbard energy            =       0.45035626 Ry
     one-center paw contrib.   =  -11701.84143586 Ry

     total magnetization       =    17.44 Bohr mag/cell
     absolute magnetization    =    37.25 Bohr mag/cell

     convergence has been achieved in  33 iterations

     Writing output data file mnau2.save/

     General routines

     Parallel routines

     Hubbard U routines

   This run was terminated on:  21:44: 1   6Apr2019

   JOB DONE.