     Program PWSCF v.6.3MaX starts on  6Apr2019 at 22:15:32

     R & G space division:  proc/nbgrp/npool/nimage =      32
     Waiting for input...
     Reading input from standard input

     Current dimensions of program PWSCF are:
     Max number of different atomic species (ntypx) = 10
     Max number of k-points (npk) =  40000
     Max angular momentum in pseudopotentials (lmaxx) =  3
               file Mn.pbe-spn-kjpaw_psl.0.3.1.UPF: wavefunction(s)  3P 3D renormalized
               file Mn.pbe-spn-kjpaw_psl.0.3.1.UPF: wavefunction(s)  3P 3D renormalized
               file Au.pbe-dn-kjpaw_psl.0.1.UPF: wavefunction(s)  6S 6P 5D renormalized

     bravais-lattice index     =            0
     lattice parameter (alat)  =       6.4153  a.u.
     unit-cell volume          =    2724.7774 (a.u.)^3
     number of atoms/cell      =           24
     number of atomic types    =            3
     number of electrons       =       296.00
     number of Kohn-Sham states=          178
     kinetic-energy cutoff     =      45.0000  Ry
     charge density cutoff     =     400.0000  Ry
     convergence threshold     =      1.0E-06
     mixing beta               =       0.1000
     number of iterations used =            8  plain     mixing
     Exchange-correlation      = SLA PW PBX PBC ( 1  4  3  4 0 0)

     celldm(1)=   6.415315  celldm(2)=   0.000000  celldm(3)=   0.000000
     celldm(4)=   0.000000  celldm(5)=   0.000000  celldm(6)=   0.000000

     crystal axes: (cart. coord. in units of alat)
               a(1) = (   1.000000   0.000000   0.000000 )
               a(2) = (   0.000000   1.000000   0.000000 )
               a(3) = (   0.000000   0.000000  10.319937 )

     reciprocal axes: (cart. coord. in units 2 pi/alat)
               b(1) = (  1.000000  0.000000  0.000000 )
               b(2) = (  0.000000  1.000000  0.000000 )
               b(3) = (  0.000000  0.000000  0.096900 )

     PseudoPot. # 1 for Mn read from file:
     ./pseudo/Mn.pbe-spn-kjpaw_psl.0.3.1.UPF
     MD5 check sum: 7b43a3fb0e93e198b8dd8488d8cf503e
     Pseudo is Projector augmented-wave + core cor, Zval = 15.0
     Generated using "atomic" code by A. Dal Corso v.5.0.99 svn rev. 10869
     Shape of augmentation charge: PSQ
     Using radial grid of 1187 points,  6 beta functions with:
                l(1) =   0
                l(2) =   0
                l(3) =   1
                l(4) =   1
                l(5) =   2
                l(6) =   2
     Q(r) pseudized with 0 coefficients

     PseudoPot. # 2 for Mn read from file:
     ./pseudo/Mn.pbe-spn-kjpaw_psl.0.3.1.UPF
     MD5 check sum: 7b43a3fb0e93e198b8dd8488d8cf503e
     Pseudo is Projector augmented-wave + core cor, Zval = 15.0
     Generated using "atomic" code by A. Dal Corso v.5.0.99 svn rev. 10869
     Shape of augmentation charge: PSQ
     Using radial grid of 1187 points,  6 beta functions with:
                l(1) =   0
                l(2) =   0
                l(3) =   1
                l(4) =   1
                l(5) =   2
                l(6) =   2
     Q(r) pseudized with 0 coefficients

     PseudoPot. # 3 for Au read from file:
     ./pseudo/Au.pbe-dn-kjpaw_psl.0.1.UPF
     MD5 check sum: be11e2e8e535ebe2b3ccfb4f88f554cb
     Pseudo is Projector augmented-wave + core cor, Zval = 11.0
     Generated using "atomic" code by A. Dal Corso v.5.0.2 svn rev. 9415
     Shape of augmentation charge: PSQ
     Using radial grid of 1279 points,  6 beta functions with:
                l(1) =   0
                l(2) =   0
                l(3) =   1
                l(4) =   1
                l(5) =   2
                l(6) =   2
     Q(r) pseudized with 0 coefficients

     atomic species   valence    mass     pseudopotential
        Mn1           15.00    54.93800     Mn( 1.00)
        Mn2           15.00    54.93800     Mn( 1.00)
        Au            11.00   196.96600     Au( 1.00)

     Starting magnetic structure
     atomic species   magnetization
        Mn1          0.800
        Mn2         -0.800
        Au           0.000

     Full LDA+U calculation (l_max = 2) with parameters (eV):
     U(  1) =   3.1200   J(  1) =   0.7000   B(  1) =   0.0803
     U(  2) =   3.1200   J(  2) =   0.7000   B(  2) =   0.0803

      8 Sym. Ops. (no inversion) found

   Cartesian axes

     site n.     atom                  positions (alat units)
         1           Mn1 tau(   1) = (   0.0000000   0.0000000   0.0000000  )
         2           Mn1 tau(   2) = (   0.5000000   0.5000000   1.2899921  )
         3           Mn1 tau(   3) = (   0.0000000   0.0000000   2.5799843  )
         4           Mn1 tau(   4) = (   0.5000000   0.5000000   3.8699764  )
         5           Mn2 tau(   5) = (   0.0000000   0.0000000   5.1599686  )
         6           Mn2 tau(   6) = (   0.5000000   0.5000000   6.4499607  )
         7           Mn2 tau(   7) = (   0.0000000   0.0000000   7.7399528  )
         8           Mn2 tau(   8) = (   0.5000000   0.5000000   9.0299450  )
         9           Au  tau(   9) = (   0.5000000   0.5000000   0.4127975  )
        10           Au  tau(  10) = (   0.0000000   0.0000000   0.8771947  )
        11           Au  tau(  11) = (   0.0000000   0.0000000   1.7027896  )
        12           Au  tau(  12) = (   0.5000000   0.5000000   2.1671868  )
        13           Au  tau(  13) = (   0.5000000   0.5000000   2.9927818  )
        14           Au  tau(  14) = (   0.0000000   0.0000000   3.4571789  )
        15           Au  tau(  15) = (   0.0000000   0.0000000   4.2827739  )
        16           Au  tau(  16) = (   0.5000000   0.5000000   4.7471711  )
        17           Au  tau(  17) = (   0.5000000   0.5000000   5.5727660  )
        18           Au  tau(  18) = (   0.0000000   0.0000000   6.0371632  )
        19           Au  tau(  19) = (   0.0000000   0.0000000   6.8627582  )
        20           Au  tau(  20) = (   0.5000000   0.5000000   7.3271553  )
        21           Au  tau(  21) = (   0.5000000   0.5000000   8.1527503  )
        22           Au  tau(  22) = (   0.0000000   0.0000000   8.6171475  )
        23           Au  tau(  23) = (   0.0000000   0.0000000   9.4427424  )
        24           Au  tau(  24) = (   0.5000000   0.5000000   9.9071396  )

     number of k points=    30 (tetrahedron method)
                       cart. coord. in units 2pi/alat
        k(    1) = (   0.0000000   0.0000000   0.0000000), wk =   0.0078125
        k(    2) = (   0.0000000   0.0000000  -0.0484499), wk =   0.0078125
        k(    3) = (   0.0000000   0.1250000   0.0000000), wk =   0.0312500
        k(    4) = (   0.0000000   0.1250000  -0.0484499), wk =   0.0312500
        k(    5) = (   0.0000000   0.2500000   0.0000000), wk =   0.0312500
        k(    6) = (   0.0000000   0.2500000  -0.0484499), wk =   0.0312500
        k(    7) = (   0.0000000   0.3750000   0.0000000), wk =   0.0312500
        k(    8) = (   0.0000000   0.3750000  -0.0484499), wk =   0.0312500
        k(    9) = (   0.0000000  -0.5000000   0.0000000), wk =   0.0156250
        k(   10) = (   0.0000000  -0.5000000  -0.0484499), wk =   0.0156250
        k(   11) = (   0.1250000   0.1250000   0.0000000), wk =   0.0312500
        k(   12) = (   0.1250000   0.1250000  -0.0484499), wk =   0.0312500
        k(   13) = (   0.1250000   0.2500000   0.0000000), wk =   0.0625000
        k(   14) = (   0.1250000   0.2500000  -0.0484499), wk =   0.0625000
        k(   15) = (   0.1250000   0.3750000   0.0000000), wk =   0.0625000
        k(   16) = (   0.1250000   0.3750000  -0.0484499), wk =   0.0625000
        k(   17) = (   0.1250000  -0.5000000   0.0000000), wk =   0.0312500
        k(   18) = (   0.1250000  -0.5000000  -0.0484499), wk =   0.0312500
        k(   19) = (   0.2500000   0.2500000   0.0000000), wk =   0.0312500
        k(   20) = (   0.2500000   0.2500000  -0.0484499), wk =   0.0312500
        k(   21) = (   0.2500000   0.3750000   0.0000000), wk =   0.0625000
        k(   22) = (   0.2500000   0.3750000  -0.0484499), wk =   0.0625000
        k(   23) = (   0.2500000  -0.5000000   0.0000000), wk =   0.0312500
        k(   24) = (   0.2500000  -0.5000000  -0.0484499), wk =   0.0312500
        k(   25) = (   0.3750000   0.3750000   0.0000000), wk =   0.0312500
        k(   26) = (   0.3750000   0.3750000  -0.0484499), wk =   0.0312500
        k(   27) = (   0.3750000  -0.5000000   0.0000000), wk =   0.0312500
        k(   28) = (   0.3750000  -0.5000000  -0.0484499), wk =   0.0312500
        k(   29) = (  -0.5000000  -0.5000000   0.0000000), wk =   0.0078125
        k(   30) = (  -0.5000000  -0.5000000  -0.0484499), wk =   0.0078125

     Check: negative/imaginary core charge=   -0.000006    0.000000

     Initial potential from superposition of free atoms

     starting charge  295.99426, renormalised to  296.00000
     Number of +U iterations with fixed ns =  0
     Starting occupations:
 --- enter write_ns ---
 LDA+U parameters:
U(  1) =   3.1200   J(  1) =   0.7000   B(  1) =   0.0803
U(  2) =   3.1200   J(  2) =   0.7000   B(  2) =   0.0803
atom    1   Tr[ns(na)] (up, down, total) =   5.00000  0.00000  5.00000
   spin  1
    eigenvalues:
  1.000  1.000  1.000  1.000  1.000
    eigenvectors:
  1.000  0.000  0.000  0.000  0.000
  0.000  1.000  0.000  0.000  0.000
  0.000  0.000  1.000  0.000  0.000
  0.000  0.000  0.000  1.000  0.000
  0.000  0.000  0.000  0.000  1.000
    occupations:
  1.000  0.000  0.000  0.000  0.000
  0.000  1.000  0.000  0.000  0.000
  0.000  0.000  1.000  0.000  0.000
  0.000  0.000  0.000  1.000  0.000
  0.000  0.000  0.000  0.000  1.000
   spin  2
    eigenvalues:
  0.000  0.000  0.000  0.000  0.000
    eigenvectors:
  1.000  0.000  0.000  0.000  0.000
  0.000  1.000  0.000  0.000  0.000
  0.000  0.000  1.000  0.000  0.000
  0.000  0.000  0.000  1.000  0.000
  0.000  0.000  0.000  0.000  1.000
    occupations:
  0.000  0.000  0.000  0.000  0.000
  0.000  0.000  0.000  0.000  0.000
  0.000  0.000  0.000  0.000  0.000
  0.000  0.000  0.000  0.000  0.000
  0.000  0.000  0.000  0.000  0.000
atomic mag. moment =     5.000000
atom    2   Tr[ns(na)] (up, down, total) =   5.00000  0.00000  5.00000
   spin  1
    eigenvalues:
  1.000  1.000  1.000  1.000  1.000
    eigenvectors:
  1.000  0.000  0.000  0.000  0.000
  0.000  1.000  0.000  0.000  0.000
  0.000  0.000  1.000  0.000  0.000
  0.000  0.000  0.000  1.000  0.000
  0.000  0.000  0.000  0.000  1.000
    occupations:
  1.000  0.000  0.000  0.000  0.000
  0.000  1.000  0.000  0.000  0.000
  0.000  0.000  1.000  0.000  0.000
  0.000  0.000  0.000  1.000  0.000
  0.000  0.000  0.000  0.000  1.000
   spin  2
    eigenvalues:
  0.000  0.000  0.000  0.000  0.000
    eigenvectors:
  1.000  0.000  0.000  0.000  0.000
  0.000  1.000  0.000  0.000  0.000
  0.000  0.000  1.000  0.000  0.000
  0.000  0.000  0.000  1.000  0.000
  0.000  0.000  0.000  0.000  1.000
    occupations:
  0.000  0.000  0.000  0.000  0.000
  0.000  0.000  0.000  0.000  0.000
  0.000  0.000  0.000  0.000  0.000
  0.000  0.000  0.000  0.000  0.000
  0.000  0.000  0.000  0.000  0.000
atomic mag. moment =     5.000000
atom    3   Tr[ns(na)] (up, down, total) =   5.00000  0.00000  5.00000
   spin  1
    eigenvalues:
[...]
  0.000  0.000  0.000  0.053 -0.000
  0.000  0.000  0.000 -0.000  0.121
   spin  2
    eigenvalues:
  1.003  1.003  1.003  1.004  1.004
    eigenvectors:
  0.000  0.000  0.000  1.000  0.000
  0.000  0.121  0.879  0.000  0.000
  0.000  0.879  0.121  0.000  0.000
  0.000  0.000  0.000  0.000  1.000
  1.000  0.000  0.000  0.000  0.000
    occupations:
  1.004 -0.000 -0.000  0.000  0.000
 -0.000  1.003 -0.000  0.000  0.000
 -0.000 -0.000  1.003  0.000  0.000
  0.000  0.000  0.000  1.004 -0.000
  0.000  0.000  0.000 -0.000  1.003
atomic mag. moment =    -4.608322
N of occupied +U levels =   43.389376
 --- exit write_ns ---

     total energy              =  -14687.27165617 Ry
     Harris-Foulkes estimate   =  -14685.81089729 Ry
     estimated scf accuracy    <      11.53658133 Ry

     total magnetization       =     0.00 Bohr mag/cell
     absolute magnetization    =    41.52 Bohr mag/cell

     iteration #  2     ecut=    45.00 Ry     beta= 0.10
     Davidson diagonalization with overlap
     ethr =  3.90E-03,  avg # of iterations =  1.0

[...]

     iteration #  9     ecut=    45.00 Ry     beta= 0.10
     Davidson diagonalization with overlap
     c_bands:  1 eigenvalues not converged
     ethr =  9.21E-05,  avg # of iterations =  4.0

[...]

     iteration # 12     ecut=    45.00 Ry     beta= 0.10
     Davidson diagonalization with overlap
     c_bands:  2 eigenvalues not converged
     ethr =  1.56E-05,  avg # of iterations =  3.5

[...]

     total energy              =  -14694.00869205 Ry
     Harris-Foulkes estimate   =  -14694.00869151 Ry
     estimated scf accuracy    <       0.00000106 Ry

[...]

     iteration # 30     ecut=    45.00 Ry     beta= 0.10
     Davidson diagonalization with overlap
     ethr =  3.57E-10,  avg # of iterations =  1.6

     Magnetic moment per site:
     atom:    1    charge:   13.5488    magn:    4.2273    constr:    0.0000
     atom:    2    charge:   13.5534    magn:    4.2013    constr:    0.0000
     atom:    3    charge:   13.5533    magn:    4.2010    constr:    0.0000
     atom:    4    charge:   13.5487    magn:    4.2278    constr:    0.0000
     atom:    5    charge:   13.5486    magn:   -4.2278    constr:    0.0000
     atom:    6    charge:   13.5535    magn:   -4.2010    constr:    0.0000
     atom:    7    charge:   13.5533    magn:   -4.2013    constr:    0.0000
     atom:    8    charge:   13.5489    magn:   -4.2274    constr:    0.0000
     atom:    9    charge:    9.1229    magn:    0.0344    constr:    0.0000
     atom:   10    charge:    9.1208    magn:    0.0291    constr:    0.0000
     atom:   11    charge:    9.1202    magn:    0.0300    constr:    0.0000
     atom:   12    charge:    9.1200    magn:    0.0299    constr:    0.0000
     atom:   13    charge:    9.1206    magn:    0.0291    constr:    0.0000
     atom:   14    charge:    9.1230    magn:    0.0345    constr:    0.0000
     atom:   15    charge:    9.1238    magn:    0.0423    constr:    0.0000
     atom:   16    charge:    9.1237    magn:   -0.0423    constr:    0.0000
     atom:   17    charge:    9.1229    magn:   -0.0345    constr:    0.0000
     atom:   18    charge:    9.1207    magn:   -0.0291    constr:    0.0000
     atom:   19    charge:    9.1201    magn:   -0.0299    constr:    0.0000
     atom:   20    charge:    9.1201    magn:   -0.0300    constr:    0.0000
     atom:   21    charge:    9.1206    magn:   -0.0291    constr:    0.0000
     atom:   22    charge:    9.1230    magn:   -0.0344    constr:    0.0000
     atom:   23    charge:    9.1237    magn:   -0.0421    constr:    0.0000
     atom:   24    charge:    9.1236    magn:    0.0421    constr:    0.0000

     End of self-consistent calculation
 --- enter write_ns ---
 LDA+U parameters:
U(  1) =   3.1200   J(  1) =   0.7000   B(  1) =   0.0803
U(  2) =   3.1200   J(  2) =   0.7000   B(  2) =   0.0803
atom    1   Tr[ns(na)] (up, down, total) =   4.97052  0.74286  5.71338
   spin  1
    eigenvalues:
  0.984  0.994  0.994  0.996  1.002
    eigenvectors:
  0.000  0.000  0.000  1.000  0.000
  0.000  0.115  0.885  0.000  0.000
  0.000  0.885  0.115  0.000  0.000
  0.000  0.000  0.000  0.000  1.000
  1.000  0.000  0.000  0.000  0.000
    occupations:
  0.996 -0.000 -0.000  0.000  0.000
 -0.000  0.994 -0.000  0.000  0.000
 -0.000 -0.000  0.994  0.000  0.000
  0.000  0.000  0.000  1.002 -0.000
  0.000  0.000  0.000 -0.000  0.984
   spin  2
    eigenvalues:
  0.065  0.131  0.144  0.144  0.258
    eigenvectors:
  0.000  1.000  0.000  0.000  0.000
  0.000  0.000  0.162  0.838  0.000
  0.000  0.000  0.838  0.162  0.000
  1.000  0.000  0.000  0.000  0.000
  0.000  0.000  0.000  0.000  1.000
    occupations:
  0.131 -0.000 -0.000  0.000  0.000
 -0.000  0.144 -0.000  0.000  0.000
 -0.000 -0.000  0.144  0.000  0.000
  0.000  0.000  0.000  0.065 -0.000
  0.000  0.000  0.000 -0.000  0.258
atomic mag. moment =     4.227658
atom    2   Tr[ns(na)] (up, down, total) =   4.96951  0.76440  5.73391
   spin  1
    eigenvalues:
  0.984  0.993  0.993  0.997  1.002
    eigenvectors:
  0.000  0.000  0.000  1.000  0.000
  0.000  0.109  0.891  0.000  0.000
  0.000  0.891  0.109  0.000  0.000
  0.000  0.000  0.000  0.000  1.000
  1.000  0.000  0.000  0.000  0.000
    occupations:
  0.997 -0.000 -0.000  0.000  0.000
 -0.000  0.993 -0.000  0.000  0.000
 -0.000 -0.000  0.993  0.000  0.000
  0.000  0.000  0.000  1.002 -0.000
  0.000  0.000  0.000 -0.000  0.984
   spin  2
    eigenvalues:
  0.065  0.143  0.143  0.147  0.268
    eigenvectors:
  0.000  0.000  0.000  1.000  0.000
  0.000  0.145  0.855  0.000  0.000
  0.000  0.855  0.145  0.000  0.000
  1.000  0.000  0.000  0.000  0.000
  0.000  0.000  0.000  0.000  1.000
    occupations:
  0.147 -0.000 -0.000  0.000  0.000
 -0.000  0.143 -0.000  0.000  0.000
 -0.000 -0.000  0.143  0.000  0.000
  0.000  0.000  0.000  0.065 -0.000
  0.000  0.000  0.000 -0.000  0.268
atomic mag. moment =     4.205114
atom    3   Tr[ns(na)] (up, down, total) =   4.96939  0.76468  5.73407
   spin  1
    eigenvalues:
  0.984  0.993  0.993  0.997  1.002
    eigenvectors:
  0.000  0.000  0.000  1.000  0.000
  0.000  0.137  0.863  0.000  0.000
  0.000  0.863  0.137  0.000  0.000
  0.000  0.000  0.000  0.000  1.000
  1.000  0.000  0.000  0.000  0.000
    occupations:
  0.997 -0.000 -0.000  0.000  0.000
 -0.000  0.993 -0.000  0.000  0.000
 -0.000 -0.000  0.993  0.000  0.000
  0.000  0.000  0.000  1.002 -0.000
  0.000  0.000  0.000 -0.000  0.984
   spin  2
    eigenvalues:
  0.065  0.142  0.142  0.147  0.269
    eigenvectors:
  0.000  0.000  0.000  1.000  0.000
  0.000  0.132  0.868  0.000  0.000
  0.000  0.868  0.132  0.000  0.000
  1.000  0.000  0.000  0.000  0.000
  0.000  0.000  0.000  0.000  1.000
    occupations:
  0.147 -0.000 -0.000  0.000  0.000
 -0.000  0.142 -0.000  0.000  0.000
 -0.000 -0.000  0.142  0.000  0.000
  0.000  0.000  0.000  0.065 -0.000
  0.000  0.000  0.000 -0.000  0.269
atomic mag. moment =     4.204715
atom    4   Tr[ns(na)] (up, down, total) =   4.97064  0.74235  5.71299
   spin  1
    eigenvalues:
  0.984  0.994  0.994  0.996  1.002
    eigenvectors:
  0.000  0.000  0.000  1.000  0.000
  0.000  0.148  0.852  0.000  0.000
  0.000  0.852  0.148  0.000  0.000
  0.000  0.000  0.000  0.000  1.000
  1.000  0.000  0.000  0.000  0.000
    occupations:
  0.996 -0.000 -0.000  0.000  0.000
 -0.000  0.994 -0.000  0.000  0.000
 -0.000 -0.000  0.994  0.000  0.000
  0.000  0.000  0.000  1.002 -0.000
  0.000  0.000  0.000 -0.000  0.984
   spin  2
    eigenvalues:
  0.065  0.131  0.144  0.144  0.257
    eigenvectors:
  0.000  1.000  0.000  0.000  0.000
  0.000  0.000  0.107  0.893  0.000
  0.000  0.000  0.893  0.107  0.000
  1.000  0.000  0.000  0.000  0.000
  0.000  0.000  0.000  0.000  1.000
    occupations:
  0.131 -0.000 -0.000  0.000  0.000
 -0.000  0.144 -0.000  0.000  0.000
 -0.000 -0.000  0.144  0.000  0.000
  0.000  0.000  0.000  0.065 -0.000
  0.000  0.000  0.000 -0.000  0.257
atomic mag. moment =     4.228286
atom    5   Tr[ns(na)] (up, down, total) =   0.74233  4.97064  5.71297
   spin  1
    eigenvalues:
  0.065  0.131  0.144  0.144  0.257
    eigenvectors:
  0.000  1.000  0.000  0.000  0.000
  0.000  0.000  0.208  0.792  0.000
  0.000  0.000  0.792  0.208  0.000
  1.000  0.000  0.000  0.000  0.000
  0.000  0.000  0.000  0.000  1.000
    occupations:
  0.131 -0.000 -0.000  0.000  0.000
 -0.000  0.144 -0.000  0.000  0.000
 -0.000 -0.000  0.144  0.000  0.000
  0.000  0.000  0.000  0.065 -0.000
  0.000  0.000  0.000 -0.000  0.257
   spin  2
    eigenvalues:
  0.984  0.994  0.994  0.996  1.002
    eigenvectors:
  0.000  0.000  0.000  1.000  0.000
  0.000  0.139  0.861  0.000  0.000
  0.000  0.861  0.139  0.000  0.000
  0.000  0.000  0.000  0.000  1.000
  1.000  0.000  0.000  0.000  0.000
    occupations:
  0.996 -0.000 -0.000  0.000  0.000
 -0.000  0.994 -0.000  0.000  0.000
 -0.000 -0.000  0.994  0.000  0.000
  0.000  0.000  0.000  1.002 -0.000
  0.000  0.000  0.000 -0.000  0.984
atomic mag. moment =    -4.228306
atom    6   Tr[ns(na)] (up, down, total) =   0.76470  4.96939  5.73409
   spin  1
    eigenvalues:
  0.065  0.142  0.142  0.147  0.269
    eigenvectors:
  0.000  0.000  0.000  1.000  0.000
  0.000  0.171  0.829  0.000  0.000
  0.000  0.829  0.171  0.000  0.000
  1.000  0.000  0.000  0.000  0.000
  0.000  0.000  0.000  0.000  1.000
    occupations:
  0.147 -0.000 -0.000  0.000  0.000
 -0.000  0.142 -0.000  0.000  0.000
 -0.000 -0.000  0.142  0.000  0.000
  0.000  0.000  0.000  0.065 -0.000
  0.000  0.000  0.000 -0.000  0.269
   spin  2
    eigenvalues:
  0.984  0.993  0.993  0.997  1.002
    eigenvectors:
  0.000  0.000  0.000  1.000  0.000
  0.000  0.119  0.881  0.000  0.000
  0.000  0.881  0.119  0.000  0.000
  0.000  0.000  0.000  0.000  1.000
  1.000  0.000  0.000  0.000  0.000
    occupations:
  0.997 -0.000 -0.000  0.000  0.000
 -0.000  0.993 -0.000  0.000  0.000
 -0.000 -0.000  0.993  0.000  0.000
  0.000  0.000  0.000  1.002 -0.000
  0.000  0.000  0.000 -0.000  0.984
atomic mag. moment =    -4.204694
atom    7   Tr[ns(na)] (up, down, total) =   0.76437  4.96951  5.73388
   spin  1
    eigenvalues:
  0.065  0.143  0.143  0.147  0.268
    eigenvectors:
  0.000  0.000  0.000  1.000  0.000
  0.000  0.154  0.846  0.000  0.000
  0.000  0.846  0.154  0.000  0.000
  1.000  0.000  0.000  0.000  0.000
  0.000  0.000  0.000  0.000  1.000
    occupations:
  0.147 -0.000 -0.000  0.000  0.000
 -0.000  0.143 -0.000  0.000  0.000
 -0.000 -0.000  0.143  0.000  0.000
  0.000  0.000  0.000  0.065 -0.000
  0.000  0.000  0.000 -0.000  0.268
   spin  2
    eigenvalues:
  0.984  0.993  0.993  0.997  1.002
    eigenvectors:
  0.000  0.000  0.000  1.000  0.000
  0.000  0.149  0.851  0.000  0.000
  0.000  0.851  0.149  0.000  0.000
  0.000  0.000  0.000  0.000  1.000
  1.000  0.000  0.000  0.000  0.000
    occupations:
  0.997 -0.000 -0.000  0.000  0.000
 -0.000  0.993 -0.000  0.000  0.000
 -0.000 -0.000  0.993  0.000  0.000
  0.000  0.000  0.000  1.002 -0.000
  0.000  0.000  0.000 -0.000  0.984
atomic mag. moment =    -4.205144
atom    8   Tr[ns(na)] (up, down, total) =   0.74282  4.97051  5.71334
   spin  1
    eigenvalues:
  0.065  0.131  0.144  0.144  0.258
    eigenvectors:
  0.000  1.000  0.000  0.000  0.000
  0.000  0.000  0.200  0.800  0.000
  0.000  0.000  0.800  0.200  0.000
  1.000  0.000  0.000  0.000  0.000
  0.000  0.000  0.000  0.000  1.000
    occupations:
  0.131 -0.000 -0.000  0.000  0.000
 -0.000  0.144 -0.000  0.000  0.000
 -0.000 -0.000  0.144  0.000  0.000
  0.000  0.000  0.000  0.065 -0.000
  0.000  0.000  0.000 -0.000  0.258
   spin  2
    eigenvalues:
  0.984  0.994  0.994  0.996  1.002
    eigenvectors:
  0.000  0.000  0.000  1.000  0.000
  0.000  0.116  0.884  0.000  0.000
  0.000  0.884  0.116  0.000  0.000
  0.000  0.000  0.000  0.000  1.000
  1.000  0.000  0.000  0.000  0.000
    occupations:
  0.996 -0.000 -0.000  0.000  0.000
 -0.000  0.994 -0.000  0.000  0.000
 -0.000 -0.000  0.994  0.000  0.000
  0.000  0.000  0.000  1.002 -0.000
  0.000  0.000  0.000 -0.000  0.984
atomic mag. moment =    -4.227691
N of occupied +U levels =   45.788636
 --- exit write_ns ---

 ------ SPIN UP ------------

          k = 0.0000 0.0000 0.0000 ( 13925 PWs)   bands (ev):

   -66.7612 -66.7593 -66.6283 -66.6280 -62.1787 -62.1773 -62.0690 -62.0685
   -35.5340 -35.5334 -35.4768 -35.4768 -35.4743 -35.4743 -35.4045 -35.4039
   -35.3445 -35.3445 -35.3443 -35.3443 -31.0052 -31.0042 -30.9968 -30.9968
   -30.9952 -30.9952 -30.9014 -30.9009 -30.8864 -30.8864 -30.8857 -30.8857
     5.7550   5.9011   5.9994   6.3729   6.3978   7.0325   7.0626   7.6118
     8.3054   8.3570   8.3729   8.4473   8.5038   8.6526   8.7097   8.8396
     8.8577   8.9300   9.0255   9.0703   9.1713   9.2234   9.2255   9.2736
     9.3263   9.3637   9.4583   9.6229   9.6383   9.6439   9.8789   9.9445
     9.9779  10.0344  10.1120  10.1218  10.1218  10.1567  10.1567  10.2001
    10.2001  10.2422  10.3361  10.3364  10.3397  10.3397  10.3441  10.3441
    10.4380  10.4621  10.5351  10.5651  10.5651  10.5900  10.5900  10.5987
    10.5987  10.6008  10.6095  10.6095  10.6628  10.7033  10.7033  10.7627
    10.7627  10.8185  10.8339  10.9063  10.9720  10.9720  11.0434  11.0434
    11.0456  11.1511  11.1944  11.2236  11.2452  11.3381  11.4171  11.4171
    11.4890  11.4890  11.5611  11.6005  11.6136  11.8077  11.8077  11.8443
    11.8903  11.9133  11.9133  11.9579  11.9797  12.0487  12.0903  12.0903
    12.0966  12.1723  12.2043  12.2413  12.4168  12.4168  12.5428  12.7352
    12.7352  12.7576  12.8158  12.9457  13.0103  13.0940  13.1091  13.6583
    13.8900  14.6042  15.1349  16.2446  16.7726  16.7726  16.8400  16.8400
    16.9610  16.9658  17.0261  17.0261  17.0497  17.0994  17.1024  17.1092
    17.1688  17.2154  17.2604  17.2604  17.4628  17.5661  17.5695  17.6638
    18.4500  19.6545  19.8080  20.0762  20.0762  20.4614  20.4614  20.5709
    20.5709  21.5024

[...]

          k =-0.5000-0.5000 0.0000 ( 13964 PWs)   bands (ev):

[...]

 ------ SPIN DOWN ----------

[...]

          k = 0.3750-0.5000-0.0484 ( 13940 PWs)   bands (ev):

[...]

          k =-0.5000-0.5000-0.0484 ( 13992 PWs)   bands (ev):

   -66.7598 -66.7577 -66.6268 -66.6267 -62.1775 -62.1762 -62.0677 -62.0672
   -35.5322 -35.5315 -35.4874 -35.4874 -35.4848 -35.4848 -35.4028 -35.4020
   -35.3552 -35.3552 -35.3550 -35.3550 -31.0105 -31.0105 -31.0090 -31.0090
   -31.0029 -31.0019 -30.9000 -30.9000 -30.8994 -30.8994 -30.8988 -30.8985
     8.0161   8.0171   8.1797   8.1809   8.4713   8.4717   8.6051   8.6053
     8.8970   8.8976   8.9780   8.9783   9.2527   9.2527   9.2612   9.2612
     9.3210   9.3212   9.3367   9.3370   9.3523   9.3523   9.3622   9.3622
     9.5457   9.5457   9.5469   9.5469   9.8457   9.8457   9.8593   9.8609
     9.8624   9.8624   9.9017   9.9017   9.9385   9.9385  10.0279  10.0293
    10.0478  10.0478  10.1331  10.1331  10.2476  10.2476  10.4002  10.4002
    10.5666  10.5667  10.6683  10.6684  10.8399  10.8399  10.9005  10.9005
    11.0884  11.0891  11.1606  11.1612  11.3532  11.3533  11.4458  11.4458
    11.4496  11.4521  11.4658  11.4658  11.5717  11.5718  11.5718  11.5721
    11.9300  11.9307  11.9548  11.9552  11.9821  11.9823  12.0015  12.0016
    12.0045  12.0045  12.0272  12.0276  12.0525  12.0527  12.0732  12.0734
    12.0956  12.0958  12.1948  12.1950  12.2251  12.2252  12.2585  12.2586
    12.3881  12.3881  12.6294  12.6294  13.3602  13.3610  13.4111  13.4123
    13.8710  13.8710  14.1304  14.1304  14.5211  14.5211  14.5692  14.5692
    14.8165  14.8165  15.4601  15.4601  16.3793  16.3793  16.6442  16.6454
    16.8190  16.8193  16.8398  16.8399  16.9822  16.9826  17.0932  17.0932
    17.4970  17.4970  17.6474  17.6474  17.7842  17.7844  17.8557  17.8558
    18.0260  18.0262  18.0831  18.0863  18.1942  18.1946  18.4075  18.4077
    18.5816  18.5816

     the Fermi energy is    15.2336 ev

!    total energy              =  -14694.00869391 Ry
     Harris-Foulkes estimate   =  -14694.00869152 Ry
     estimated scf accuracy    <       0.00000032 Ry

     total all-electron energy =   -626921.604416 Ry

     The total energy is the sum of the following terms:

     one-electron contribution =    -714.66022856 Ry
     hartree contribution      =     656.67031095 Ry
     xc contribution           =    -737.85906596 Ry
     ewald contribution        =   -2196.78933708 Ry
     Hubbard energy            =       0.45800741 Ry
     one-center paw contrib.   =  -11701.82838067 Ry

     total magnetization       =    -0.00 Bohr mag/cell
     absolute magnetization    =    37.06 Bohr mag/cell

     convergence has been achieved in  30 iterations

     Writing output data file mnau2.save/

     General routines

     Parallel routines

     Hubbard U routines

   This run was terminated on:  22:40: 4   6Apr2019

   JOB DONE.