     Program PWSCF v.6.3MaX starts on 26Mar2019 at 12:42:25

     R & G space division:  proc/nbgrp/npool/nimage =      16
     Waiting for input...
     Reading input from standard input

     Current dimensions of program PWSCF are:
     Max number of different atomic species (ntypx) = 10
     Max number of k-points (npk) =  40000
     Max angular momentum in pseudopotentials (lmaxx) =  3
     Message from routine read_upf::
     Pseudo file ./pseudo/Mn.pbe-spn-kjpaw_psl.0.3.1.UPF has been successfully fixed on the fly.
To avoid this message in the future you can permanently fix
 your pseudo files following instructions given in:
               file Mn.pbe-spn-kjpaw_psl.0.3.1.UPF: wavefunction(s)  3P 3D renormalized
     Message from routine read_upf::
     Pseudo file ./pseudo/Mn.pbe-spn-kjpaw_psl.0.3.1.UPF has been successfully fixed on the fly.
To avoid this message in the future you can permanently fix
 your pseudo files following instructions given in:
               file Mn.pbe-spn-kjpaw_psl.0.3.1.UPF: wavefunction(s)  3P 3D renormalized
     Message from routine read_upf::
     Pseudo file ./pseudo/Au.pbe-dn-kjpaw_psl.0.1.UPF has been successfully fixed on the fly.
To avoid this message in the future you can permanently fix
 your pseudo files following instructions given in:
               file Au.pbe-dn-kjpaw_psl.0.1.UPF: wavefunction(s)  6S 6P 5D renormalized

     bravais-lattice index     =            0
     lattice parameter (alat)  =      18.0125  a.u.
     unit-cell volume          =    2685.0513 (a.u.)^3
     number of atoms/cell      =           24
     number of atomic types    =            3
     number of electrons       =       296.00
     number of Kohn-Sham states=          178
     kinetic-energy cutoff     =      45.0000  Ry
     charge density cutoff     =     400.0000  Ry
     convergence threshold     =      1.0E-06
     mixing beta               =       0.1000
     number of iterations used =            8  plain     mixing
     Exchange-correlation      = SLA PW PBX PBC ( 1  4  3  4 0 0)

     celldm(1)=  18.012490  celldm(2)=   0.000000  celldm(3)=   0.000000
     celldm(4)=   0.000000  celldm(5)=   0.000000  celldm(6)=   0.000000

     crystal axes: (cart. coord. in units of alat)
               a(1) = (   0.707107  -0.707107   0.000000 )
               a(2) = (  -0.707107  -0.707107   0.000000 )
               a(3) = (   0.176777   0.176777  -0.459443 )

     reciprocal axes: (cart. coord. in units 2 pi/alat)
               b(1) = (  0.707107 -0.707107  0.000000 )
               b(2) = ( -0.707107 -0.707107 -0.544138 )
               b(3) = (  0.000000  0.000000 -2.176550 )

     PseudoPot. # 1 for Mn read from file:
     ./pseudo/Mn.pbe-spn-kjpaw_psl.0.3.1.UPF
     MD5 check sum: 7eef95dd2aae66803482eea66ebeebf1
     Pseudo is Projector augmented-wave + core cor, Zval = 15.0
     Generated using "atomic" code by A. Dal Corso v.5.0.99 svn rev. 10869
     Shape of augmentation charge: PSQ
     Using radial grid of 1187 points,  6 beta functions with:
                l(1) =   0
                l(2) =   0
                l(3) =   1
                l(4) =   1
                l(5) =   2
                l(6) =   2
     Q(r) pseudized with 0 coefficients

     PseudoPot. # 2 for Mn read from file:
     ./pseudo/Mn.pbe-spn-kjpaw_psl.0.3.1.UPF
     MD5 check sum: 7eef95dd2aae66803482eea66ebeebf1
     Pseudo is Projector augmented-wave + core cor, Zval = 15.0
     Generated using "atomic" code by A. Dal Corso v.5.0.99 svn rev. 10869
     Shape of augmentation charge: PSQ
     Using radial grid of 1187 points,  6 beta functions with:
                l(1) =   0
                l(2) =   0
                l(3) =   1
                l(4) =   1
                l(5) =   2
                l(6) =   2
     Q(r) pseudized with 0 coefficients

     PseudoPot. # 3 for Au read from file:
     ./pseudo/Au.pbe-dn-kjpaw_psl.0.1.UPF
     MD5 check sum: 5c9b92683623e7ae2ab3f8e525febab6
     Pseudo is Projector augmented-wave + core cor, Zval = 11.0
     Generated using "atomic" code by A. Dal Corso v.5.0.2 svn rev. 9415
     Shape of augmentation charge: PSQ
     Using radial grid of 1279 points,  6 beta functions with:
                l(1) =   0
                l(2) =   0
                l(3) =   1
                l(4) =   1
                l(5) =   2
                l(6) =   2
     Q(r) pseudized with 0 coefficients

     atomic species   valence    mass     pseudopotential
        Mn1           15.00    54.93800     Mn( 1.00)
        Mn2           15.00    54.93800     Mn( 1.00)
        Au            11.00   196.96600     Au( 1.00)

     Starting magnetic structure
     atomic species   magnetization
        Mn1          1.000
        Mn2         -1.000
        Au           0.000

     Full LDA+U calculation (l_max = 2) with parameters (eV):
     U(  1) =   3.1200   J(  1) =   0.7000   B(  1) =   0.0803
     U(  2) =   3.1200   J(  2) =   0.7000   B(  2) =   0.0803

     No symmetry found

   Cartesian axes

     site n.     atom                  positions (alat units)
         1           Mn1 tau(   1) = (   0.3535534  -0.3535534   0.0000000  )
         2           Mn1 tau(   2) = (   0.0000000   0.0000000   0.0000000  )
         3           Mn2 tau(   3) = (   0.0000000  -0.3535534   0.0000000  )
         4           Mn2 tau(   4) = (   0.3535534  -0.7071068   0.0000000  )
         5           Mn1 tau(   5) = (  -0.3535534  -0.3535534   0.0000000  )
         6           Mn2 tau(   6) = (   0.0000000  -0.7071068   0.0000000  )
         7           Mn1 tau(   7) = (  -0.3535534  -0.7071068   0.0000000  )
         8           Mn2 tau(   8) = (   0.0000000  -1.0606602   0.0000000  )
         9           Au  tau(   9) = (  -0.1767767  -0.1767767  -0.1470216  )
        10           Au  tau(  10) = (   0.1767767  -0.5303301  -0.1470216  )
        11           Au  tau(  11) = (  -0.1767767  -0.5303301  -0.1470216  )
        12           Au  tau(  12) = (   0.1767767  -0.8838835  -0.1470216  )
        13           Au  tau(  13) = (  -0.5303301  -0.5303301  -0.1470216  )
        14           Au  tau(  14) = (  -0.1767767  -0.8838835  -0.1470216  )
        15           Au  tau(  15) = (   0.5303301  -0.5303301  -0.1470216  )
        16           Au  tau(  16) = (   0.1767767  -0.1767767  -0.1470216  )
        17           Au  tau(  17) = (   0.3535534  -0.3535534  -0.3124210  )
        18           Au  tau(  18) = (   0.0000000   0.0000000  -0.3124210  )
        19           Au  tau(  19) = (   0.0000000  -0.3535534  -0.3124210  )
        20           Au  tau(  20) = (   0.3535534  -0.7071068  -0.3124210  )
        21           Au  tau(  21) = (  -0.3535534  -0.3535534  -0.3124210  )
        22           Au  tau(  22) = (  -0.0000000  -0.7071068  -0.3124210  )
        23           Au  tau(  23) = (  -0.3535534  -0.7071068  -0.3124210  )
        24           Au  tau(  24) = (   0.0000000  -1.0606602  -0.3124210  )

     number of k points=    36 (tetrahedron method)
                       cart. coord. in units 2pi/alat
        k(    1) = (   0.0000000   0.0000000   0.0000000), wk =   0.0156250
        k(    2) = (   0.0000000   0.0000000  -0.5441376), wk =   0.0312500
        k(    3) = (   0.0000000   0.0000000   1.0882752), wk =   0.0156250
        k(    4) = (  -0.1767767  -0.1767767  -0.1360344), wk =   0.0312500
        k(    5) = (  -0.1767767  -0.1767767  -0.6801720), wk =   0.0312500
        k(    6) = (  -0.1767767  -0.1767767   0.9522408), wk =   0.0312500
        k(    7) = (  -0.1767767  -0.1767767   0.4081032), wk =   0.0312500
        k(    8) = (   0.3535534   0.3535534   0.2720688), wk =   0.0156250
        k(    9) = (   0.3535534   0.3535534  -0.2720688), wk =   0.0312500
        k(   10) = (   0.3535534   0.3535534   1.3603439), wk =   0.0156250
        k(   11) = (   0.1767767  -0.1767767   0.0000000), wk =   0.0312500
        k(   12) = (   0.1767767  -0.1767767  -0.5441376), wk =   0.0312500
        k(   13) = (   0.1767767  -0.1767767   1.0882752), wk =   0.0312500
        k(   14) = (   0.0000000  -0.3535534  -0.1360344), wk =   0.0312500
        k(   15) = (   0.0000000  -0.3535534  -0.6801720), wk =   0.0312500
        k(   16) = (   0.0000000  -0.3535534   0.9522408), wk =   0.0312500
        k(   17) = (   0.0000000  -0.3535534   0.4081032), wk =   0.0312500
        k(   18) = (   0.5303301   0.1767767   0.2720688), wk =   0.0312500
        k(   19) = (   0.5303301   0.1767767  -0.2720688), wk =   0.0312500
        k(   20) = (   0.5303301   0.1767767   1.3603439), wk =   0.0312500
        k(   21) = (  -0.3535534   0.3535534   0.0000000), wk =   0.0156250
        k(   22) = (  -0.3535534   0.3535534  -0.5441376), wk =   0.0312500
        k(   23) = (  -0.3535534   0.3535534   1.0882752), wk =   0.0156250
        k(   24) = (  -0.5303301   0.1767767  -0.1360344), wk =   0.0312500
        k(   25) = (  -0.5303301   0.1767767  -0.6801720), wk =   0.0312500
        k(   26) = (  -0.5303301   0.1767767   0.9522408), wk =   0.0312500
        k(   27) = (  -0.5303301   0.1767767   0.4081032), wk =   0.0312500
        k(   28) = (   0.0000000   0.7071068   0.2720688), wk =   0.0156250
        k(   29) = (   0.0000000   0.7071068  -0.2720688), wk =   0.0312500
        k(   30) = (   0.0000000   0.7071068   1.3603439), wk =   0.0156250
        k(   31) = (   0.1767767  -0.1767767   0.5441376), wk =   0.0312500
        k(   32) = (   0.3535534   0.0000000   0.1360344), wk =   0.0312500
        k(   33) = (   0.3535534   0.0000000   0.6801720), wk =   0.0312500
        k(   34) = (   0.3535534   0.0000000  -0.9522408), wk =   0.0312500
        k(   35) = (   0.3535534   0.0000000  -0.4081032), wk =   0.0312500
        k(   36) = (  -0.1767767  -0.5303301   0.2720688), wk =   0.0312500

     Check: negative/imaginary core charge=   -0.000006    0.000000

     Initial potential from superposition of free atoms

     starting charge  295.99426, renormalised to  296.00000
     Number of +U iterations with fixed ns =  0
     Starting occupations:
 --- enter write_ns ---
 LDA+U parameters:
U(  1) =   3.1200   J(  1) =   0.7000   B(  1) =   0.0803
U(  2) =   3.1200   J(  2) =   0.7000   B(  2) =   0.0803
atom    1   Tr[ns(na)] (up, down, total) =   5.00000  0.00000  5.00000
   spin  1
    eigenvalues:
  1.000  1.000  1.000  1.000  1.000
    eigenvectors:
  1.000  0.000  0.000  0.000  0.000
  0.000  1.000  0.000  0.000  0.000
  0.000  0.000  1.000  0.000  0.000
  0.000  0.000  0.000  1.000  0.000
  0.000  0.000  0.000  0.000  1.000
    occupations:
  1.000  0.000  0.000  0.000  0.000
  0.000  1.000  0.000  0.000  0.000
  0.000  0.000  1.000  0.000  0.000
  0.000  0.000  0.000  1.000  0.000
  0.000  0.000  0.000  0.000  1.000
   spin  2
    eigenvalues:
  0.000  0.000  0.000  0.000  0.000
    eigenvectors:
  1.000  0.000  0.000  0.000  0.000
  0.000  1.000  0.000  0.000  0.000
  0.000  0.000  1.000  0.000  0.000
  0.000  0.000  0.000  1.000  0.000
  0.000  0.000  0.000  0.000  1.000
    occupations:
  0.000  0.000  0.000  0.000  0.000
  0.000  0.000  0.000  0.000  0.000
  0.000  0.000  0.000  0.000  0.000
  0.000  0.000  0.000  0.000  0.000
  0.000  0.000  0.000  0.000  0.000
[...]
   spin  1
    eigenvalues:
  0.042  0.052  0.054  0.055  0.072
    eigenvectors:
  0.010  0.922  0.012  0.056  0.001
  0.000  0.067  0.267  0.666  0.000
  0.000  0.001  0.720  0.278  0.001
  0.990  0.009  0.000  0.000  0.000
  0.000  0.001  0.000  0.001  0.998
    occupations:
  0.052  0.001 -0.000 -0.001 -0.001
  0.001  0.055 -0.000  0.000 -0.000
 -0.000 -0.000  0.055  0.000  0.001
 -0.001  0.000  0.000  0.042  0.000
 -0.001 -0.000  0.001  0.000  0.072
   spin  2
    eigenvalues:
  1.003  1.003  1.003  1.003  1.003
    eigenvectors:
  0.001  0.001  0.001  0.996  0.001
  0.000  0.929  0.071  0.001  0.000
  0.000  0.070  0.928  0.001  0.001
  0.000  0.000  0.000  0.001  0.998
  0.998  0.000  0.000  0.001  0.000
    occupations:
  1.003  0.000 -0.000  0.000 -0.000
  0.000  1.003  0.000 -0.000 -0.000
 -0.000  0.000  1.003  0.000  0.000
  0.000 -0.000  0.000  1.003 -0.000
 -0.000 -0.000  0.000 -0.000  1.003
atomic mag. moment =    -4.738469
N of occupied +U levels =   42.323066
 --- exit write_ns ---

     total energy              =  -14679.25186169 Ry
     Harris-Foulkes estimate   =  -14669.87747144 Ry
     estimated scf accuracy    <      21.27589330 Ry

     total magnetization       =    -0.00 Bohr mag/cell
     absolute magnetization    =    43.52 Bohr mag/cell

     iteration #  2     ecut=    45.00 Ry     beta= 0.10
     Davidson diagonalization with overlap
     ethr =  7.19E-03,  avg # of iterations =  1.0

[...]

     total energy              =  -14693.92808101 Ry
     Harris-Foulkes estimate   =  -14693.92807606 Ry
     estimated scf accuracy    <       0.00000151 Ry

[...]

     iteration # 18     ecut=    45.00 Ry     beta= 0.10
     Davidson diagonalization with overlap
     ethr =  5.10E-10,  avg # of iterations =  2.6

     Magnetic moment per site:
     atom:    1    charge:   13.5357    magn:    4.2575    constr:    0.0000
     atom:    2    charge:   13.5405    magn:    4.2250    constr:    0.0000
     atom:    3    charge:   13.5358    magn:   -4.2575    constr:    0.0000
     atom:    4    charge:   13.5405    magn:   -4.2249    constr:    0.0000
     atom:    5    charge:   13.5383    magn:    4.2431    constr:    0.0000
     atom:    6    charge:   13.5425    magn:   -4.2074    constr:    0.0000
     atom:    7    charge:   13.5425    magn:    4.2074    constr:    0.0000
     atom:    8    charge:   13.5385    magn:   -4.2431    constr:    0.0000
     atom:    9    charge:    9.0919    magn:    0.0001    constr:    0.0000
     atom:   10    charge:    9.0932    magn:   -0.0336    constr:    0.0000
     atom:   11    charge:    9.0916    magn:    0.0129    constr:    0.0000
     atom:   12    charge:    9.0901    magn:   -0.0219    constr:    0.0000
     atom:   13    charge:    9.0911    magn:    0.0181    constr:    0.0000
     atom:   14    charge:    9.0911    magn:    0.0044    constr:    0.0000
     atom:   15    charge:    9.0925    magn:    0.0002    constr:    0.0000
     atom:   16    charge:    9.0929    magn:    0.0194    constr:    0.0000
     atom:   17    charge:    9.0930    magn:   -0.0194    constr:    0.0000
     atom:   18    charge:    9.0925    magn:   -0.0002    constr:    0.0000
     atom:   19    charge:    9.0912    magn:   -0.0044    constr:    0.0000
     atom:   20    charge:    9.0912    magn:   -0.0181    constr:    0.0000
     atom:   21    charge:    9.0901    magn:    0.0219    constr:    0.0000
     atom:   22    charge:    9.0916    magn:   -0.0130    constr:    0.0000
     atom:   23    charge:    9.0933    magn:    0.0336    constr:    0.0000
     atom:   24    charge:    9.0919    magn:   -0.0001    constr:    0.0000

     End of self-consistent calculation
 --- enter write_ns ---
 LDA+U parameters:
U(  1) =   3.1200   J(  1) =   0.7000   B(  1) =   0.0803
U(  2) =   3.1200   J(  2) =   0.7000   B(  2) =   0.0803
atom    1   Tr[ns(na)] (up, down, total) =   4.97118  0.71873  5.68990
   spin  1
    eigenvalues:
  0.986  0.993  0.994  0.997  1.002
    eigenvectors:
  0.005  0.035  0.001  0.957  0.003
  0.003  0.587  0.381  0.027  0.001
  0.003  0.370  0.618  0.009  0.000
  0.000  0.000  0.000  0.003  0.996
  0.989  0.008  0.000  0.003  0.000
    occupations:
  0.997 -0.001 -0.000  0.000 -0.001
 -0.001  0.993 -0.000 -0.000 -0.000
 -0.000 -0.000  0.994 -0.000 -0.000
  0.000 -0.000 -0.000  1.002  0.000
 -0.001 -0.000 -0.000  0.000  0.986
   spin  2
    eigenvalues:
  0.070  0.125  0.136  0.147  0.240
    eigenvectors:
  0.000  0.982  0.001  0.017  0.001
  0.002  0.012  0.497  0.487  0.002
  0.000  0.004  0.489  0.469  0.037
  0.998  0.000  0.001  0.001  0.000
  0.000  0.002  0.012  0.026  0.960
    occupations:
  0.126 -0.002 -0.001  0.001  0.004
 -0.002  0.141  0.006 -0.003  0.003
 -0.001  0.006  0.145  0.000  0.019
  0.001 -0.003  0.000  0.071  0.000
  0.004  0.003  0.019  0.000  0.237
atomic mag. moment =     4.252450
atom    2   Tr[ns(na)] (up, down, total) =   4.96674  0.74560  5.71234
   spin  1
    eigenvalues:
  0.983  0.993  0.993  0.996  1.001
    eigenvectors:
  0.000  0.000  0.004  0.994  0.002
  0.001  0.310  0.686  0.003  0.000
  0.000  0.690  0.309  0.001  0.000
  0.000  0.000  0.000  0.002  0.998
  0.999  0.000  0.001  0.000  0.000
    occupations:
  0.996  0.000 -0.000 -0.000 -0.000
  0.000  0.993 -0.000  0.000 -0.000
 -0.000 -0.000  0.993 -0.000  0.000
 -0.000  0.000 -0.000  1.001 -0.000
 -0.000 -0.000  0.000 -0.000  0.983
   spin  2
    eigenvalues:
  0.070  0.127  0.140  0.151  0.257
    eigenvectors:
  0.000  0.620  0.069  0.303  0.007
  0.001  0.143  0.255  0.597  0.004
  0.001  0.235  0.660  0.078  0.026
  0.999  0.001  0.000  0.000  0.000
  0.000  0.001  0.015  0.021  0.963
    occupations:
  0.136  0.009  0.008 -0.000 -0.009
  0.009  0.145  0.001  0.002 -0.007
  0.008  0.001  0.141  0.002 -0.018
 -0.000  0.002  0.002  0.070  0.000
 -0.009 -0.007 -0.018  0.000  0.253
atomic mag. moment =     4.221148
atom    3   Tr[ns(na)] (up, down, total) =   0.71881  4.97119  5.69000
   spin  1
    eigenvalues:
  0.070  0.125  0.136  0.147  0.240
    eigenvectors:
  0.000  0.982  0.001  0.017  0.001
  0.002  0.012  0.497  0.487  0.002
  0.000  0.004  0.489  0.469  0.037
  0.998  0.000  0.001  0.001  0.000
  0.000  0.002  0.012  0.026  0.960
    occupations:
  0.126 -0.002 -0.001  0.001  0.004
 -0.002  0.141  0.006 -0.003  0.003
 -0.001  0.006  0.145  0.000  0.019
  0.001 -0.003  0.000  0.071  0.000
  0.004  0.003  0.019  0.000  0.237
   spin  2
    eigenvalues:
  0.986  0.993  0.994  0.997  1.002
    eigenvectors:
  0.005  0.035  0.001  0.957  0.003
  0.003  0.587  0.381  0.027  0.001
  0.003  0.370  0.618  0.009  0.000
  0.000  0.000  0.000  0.003  0.996
  0.989  0.008  0.000  0.003  0.000
    occupations:
  0.997 -0.001 -0.000  0.000 -0.001
 -0.001  0.993 -0.000 -0.000 -0.000
 -0.000 -0.000  0.994 -0.000 -0.000
  0.000 -0.000 -0.000  1.002  0.000
 -0.001 -0.000 -0.000  0.000  0.986
atomic mag. moment =    -4.252385
atom    4   Tr[ns(na)] (up, down, total) =   0.74563  4.96674  5.71237
   spin  1
    eigenvalues:
  0.070  0.127  0.140  0.151  0.257
    eigenvectors:
  0.000  0.620  0.069  0.303  0.007
  0.001  0.143  0.255  0.597  0.004
  0.001  0.235  0.660  0.078  0.026
  0.999  0.001  0.000  0.000  0.000
  0.000  0.001  0.015  0.021  0.963
    occupations:
  0.136  0.009  0.008 -0.000 -0.009
  0.009  0.145  0.001  0.002 -0.007
  0.008  0.001  0.141  0.002 -0.018
 -0.000  0.002  0.002  0.070  0.000
 -0.009 -0.007 -0.018  0.000  0.253
   spin  2
    eigenvalues:
  0.983  0.993  0.993  0.996  1.001
    eigenvectors:
  0.000  0.000  0.004  0.994  0.002
  0.001  0.310  0.686  0.003  0.000
  0.000  0.690  0.309  0.001  0.000
  0.000  0.000  0.000  0.002  0.998
  0.999  0.000  0.001  0.000  0.000
    occupations:
  0.996  0.000 -0.000 -0.000 -0.000
  0.000  0.993 -0.000  0.000 -0.000
 -0.000 -0.000  0.993 -0.000  0.000
 -0.000  0.000 -0.000  1.001 -0.000
 -0.000 -0.000  0.000 -0.000  0.983
atomic mag. moment =    -4.221106
atom    5   Tr[ns(na)] (up, down, total) =   4.96951  0.73076  5.70027
   spin  1
    eigenvalues:
  0.985  0.992  0.994  0.997  1.001
    eigenvectors:
  0.005  0.000  0.044  0.946  0.004
  0.003  0.497  0.477  0.021  0.001
  0.000  0.500  0.475  0.025  0.000
  0.000  0.001  0.001  0.003  0.995
  0.991  0.002  0.002  0.004  0.000
    occupations:
  0.997  0.001  0.001  0.000  0.001
  0.001  0.993  0.001 -0.000 -0.000
  0.001  0.001  0.993  0.000  0.000
  0.000 -0.000  0.000  1.001  0.000
  0.001 -0.000  0.000  0.000  0.985
   spin  2
    eigenvalues:
  0.070  0.123  0.143  0.148  0.246
    eigenvectors:
  0.000  0.889  0.035  0.047  0.029
  0.001  0.024  0.900  0.061  0.015
  0.000  0.067  0.041  0.892  0.000
  0.999  0.000  0.001  0.000  0.000
  0.000  0.020  0.023  0.000  0.956
    occupations:
  0.129  0.005  0.006  0.000 -0.020
  0.005  0.144 -0.002 -0.002 -0.012
  0.006 -0.002  0.146 -0.001 -0.001
  0.000 -0.002 -0.001  0.070 -0.000
 -0.020 -0.012 -0.001 -0.000  0.241
atomic mag. moment =     4.238757
atom    6   Tr[ns(na)] (up, down, total) =   0.75887  4.96555  5.72441
   spin  1
    eigenvalues:
  0.068  0.127  0.142  0.155  0.267
    eigenvectors:
  0.000  0.995  0.002  0.001  0.002
  0.001  0.003  0.670  0.325  0.001
  0.000  0.000  0.326  0.664  0.009
  0.999  0.000  0.001  0.000  0.000
  0.000  0.002  0.001  0.009  0.988
    occupations:
  0.127  0.001  0.001  0.000  0.006
  0.001  0.146  0.006 -0.002  0.002
  0.001  0.006  0.152  0.001  0.011
  0.000 -0.002  0.001  0.068  0.000
  0.006  0.002  0.011  0.000  0.266
   spin  2
    eigenvalues:
  0.983  0.991  0.992  0.997  1.002
    eigenvectors:
  0.000  0.004  0.045  0.946  0.004
  0.004  0.591  0.371  0.034  0.001
  0.000  0.402  0.583  0.015  0.000
  0.000  0.000  0.000  0.005  0.995
  0.996  0.003  0.001  0.000  0.000
    occupations:
  0.997 -0.001 -0.001  0.000 -0.000
 -0.001  0.992  0.001 -0.000 -0.001
 -0.001  0.001  0.992  0.000  0.000
  0.000 -0.000  0.000  1.002  0.000
 -0.000 -0.001  0.000  0.000  0.983
atomic mag. moment =    -4.206681
atom    7   Tr[ns(na)] (up, down, total) =   4.96555  0.75886  5.72441
   spin  1
    eigenvalues:
  0.983  0.991  0.992  0.997  1.002
    eigenvectors:
  0.000  0.004  0.045  0.946  0.004
  0.004  0.591  0.371  0.034  0.001
  0.000  0.402  0.583  0.015  0.000
  0.000  0.000  0.000  0.005  0.995
  0.996  0.003  0.001  0.000  0.000
    occupations:
  0.997 -0.001 -0.001  0.000 -0.000
 -0.001  0.992  0.001 -0.000 -0.001
 -0.001  0.001  0.992  0.000  0.000
  0.000 -0.000  0.000  1.002  0.000
 -0.000 -0.001  0.000  0.000  0.983
   spin  2
    eigenvalues:
  0.068  0.127  0.142  0.155  0.267
    eigenvectors:
  0.000  0.995  0.002  0.001  0.002
  0.001  0.003  0.670  0.325  0.001
  0.000  0.000  0.326  0.664  0.009
  0.999  0.000  0.001  0.000  0.000
  0.000  0.002  0.001  0.009  0.988
    occupations:
  0.127  0.001  0.001  0.000  0.006
  0.001  0.146  0.006 -0.002  0.002
  0.001  0.006  0.152  0.001  0.011
  0.000 -0.002  0.001  0.068  0.000
  0.006  0.002  0.011  0.000  0.266
atomic mag. moment =     4.206686
atom    8   Tr[ns(na)] (up, down, total) =   0.73086  4.96953  5.70039
   spin  1
    eigenvalues:
  0.070  0.123  0.143  0.148  0.246
    eigenvectors:
  0.000  0.889  0.035  0.047  0.029
  0.001  0.024  0.899  0.061  0.015
  0.000  0.067  0.041  0.891  0.000
  0.999  0.000  0.001  0.000  0.000
  0.000  0.020  0.023  0.000  0.956
    occupations:
  0.129  0.005  0.006  0.000 -0.020
  0.005  0.144 -0.002 -0.002 -0.012
  0.006 -0.002  0.146 -0.001 -0.001
  0.000 -0.002 -0.001  0.070 -0.000
 -0.020 -0.012 -0.001 -0.000  0.241
   spin  2
    eigenvalues:
  0.985  0.992  0.994  0.997  1.001
    eigenvectors:
  0.005  0.000  0.044  0.946  0.004
  0.003  0.497  0.477  0.021  0.001
  0.000  0.500  0.475  0.025  0.000
  0.000  0.001  0.001  0.003  0.995
  0.991  0.002  0.002  0.004  0.000
    occupations:
  0.997  0.001  0.001  0.000  0.001
  0.001  0.993  0.001 -0.000 -0.000
  0.001  0.001  0.993  0.000  0.000
  0.000 -0.000  0.000  1.001  0.000
  0.001 -0.000  0.000  0.000  0.985
atomic mag. moment =    -4.238668
N of occupied +U levels =   45.654091
 --- exit write_ns ---

 ------ SPIN UP ------------

          k = 0.0000 0.0000 0.0000 ( 13629 PWs)   bands (ev):

   -66.4656 -66.4385 -66.4149 -66.3813 -61.8650 -61.8515 -61.8468 -61.8234
   -35.2401 -35.2101 -35.1928 -35.1900 -35.1887 -35.1859 -35.1682 -35.1540
   -35.1410 -35.1249 -35.1021 -35.0949 -30.6940 -30.6933 -30.6856 -30.6822
   -30.6810 -30.6790 -30.6724 -30.6718 -30.6685 -30.6579 -30.6492 -30.6421
     5.9678   7.5405   7.7055   8.0781   8.2156   8.3963   8.5046   8.5371
     8.7076   8.7079   9.0353   9.2920   9.3405   9.4218   9.4306   9.4676
     9.5068   9.5280   9.5659   9.5692   9.6048   9.6186   9.6564   9.7010
     9.7147   9.7585   9.8201   9.8533   9.8949   9.9371   9.9468   9.9524
    10.0168  10.0252  10.0527  10.0975  10.1119  10.1903  10.2219  10.2371
    10.2687  10.2712  10.3138  10.3660  10.3948  10.4142  10.4238  10.4675
    10.4812  10.5012  10.5308  10.5740  10.6653  10.7120  10.7299  10.8179
    10.8345  10.8865  11.0073  11.0708  11.1021  11.1168  11.1581  11.1864
    11.2249  11.3341  11.3375  11.3421  11.3954  11.4825  11.6045  11.6665
    11.8206  11.8245  11.8276  11.8589  11.8776  11.9167  11.9506  12.0044
    12.0937  12.1531  12.2116  12.2417  12.2714  12.2767  12.3211  12.3421
    12.3610  12.3687  12.3866  12.5043  12.5160  12.5254  12.5442  12.6818
    12.6932  12.7013  12.7041  12.7116  12.7633  12.8730  12.9119  12.9846
    13.1571  13.2170  13.2761  13.2776  13.2808  14.1456  14.5099  15.0279
    15.0505  15.1457  15.5587  15.8416  16.0731  16.3375  16.6835  16.7754
    16.8680  16.9398  16.9885  17.0772  17.1545  17.3005  17.3225  17.4850
    17.5485  17.5641  17.6276  17.7804  17.8428  17.9240  18.0642  18.1668
    18.6073  18.8047  19.1480  19.1587  19.4613  19.4875  19.4974  19.5685
    19.6881  19.7298

[...]

          k =-0.1768-0.1768-0.1360 ( 13673 PWs)   bands (ev):

[...]

 ------ SPIN DOWN ----------

[...]

          k = 0.3536 0.0000-0.4081 ( 13687 PWs)   bands (ev):

[...]

          k =-0.1768-0.5303 0.2721 ( 13683 PWs)   bands (ev):

   -66.4661 -66.4389 -66.4147 -66.3814 -61.8644 -61.8509 -61.8468 -61.8234
   -35.2406 -35.2106 -35.1932 -35.1899 -35.1891 -35.1864 -35.1683 -35.1539
   -35.1414 -35.1246 -35.1023 -35.0950 -30.6935 -30.6929 -30.6850 -30.6816
   -30.6806 -30.6790 -30.6725 -30.6713 -30.6685 -30.6579 -30.6491 -30.6420
     6.7134   7.5497   7.6972   8.2506   8.5235   8.5360   8.6707   8.7780
     8.8006   8.8874   8.9606   8.9808   9.0259   9.0713   9.1562   9.2509
     9.2644   9.3167   9.3608   9.3798   9.4126   9.4722   9.5015   9.5358
     9.5866   9.6017   9.6447   9.7209   9.7609   9.7899   9.8449   9.8653
     9.8927   9.9772  10.0270  10.0676  10.1384  10.1794  10.2169  10.2448
    10.2852  10.3325  10.3632  10.4216  10.4768  10.5324  10.6064  10.6528
    10.7025  10.7108  10.7309  10.8079  10.8536  10.8961  10.9318  11.0086
    11.0405  11.0683  11.1171  11.1412  11.2091  11.2397  11.2722  11.3156
    11.3382  11.3515  11.4575  11.5147  11.5680  11.6275  11.6397  11.6826
    11.7328  11.7611  11.8066  11.8542  11.8908  11.9256  11.9808  11.9964
    12.0494  12.0803  12.1270  12.1507  12.1776  12.1954  12.2518  12.2612
    12.2802  12.2943  12.3218  12.3819  12.4379  12.4804  12.5404  12.5778
    12.6161  12.6558  12.6917  12.7489  12.7714  12.8238  12.8975  13.0134
    13.0507  13.2397  13.3324  13.3608  13.7449  14.0303  14.1968  14.6718
    14.8597  15.1874  15.4262  15.5057  15.6292  15.7375  15.9181  16.1420
    16.4355  16.6944  17.1233  17.2024  17.2639  17.3145  17.3656  17.4001
    17.5107  17.5785  17.6003  17.6953  17.7845  17.8338  17.8993  17.9560
    18.0482  18.2052  18.3387  18.3796  18.4749  18.6544  19.0648  19.8443
    20.1654  20.2571

     the Fermi energy is    15.5899 ev

!    total energy              =  -14693.92809892 Ry
     Harris-Foulkes estimate   =  -14693.92807913 Ry
     estimated scf accuracy    <       0.00000077 Ry

     total all-electron energy =   -626921.523821 Ry

     The total energy is the sum of the following terms:

     one-electron contribution =    -698.44416288 Ry
     hartree contribution      =     651.62341656 Ry
     xc contribution           =    -738.12341838 Ry
     ewald contribution        =   -2207.56121140 Ry
     Hubbard energy            =       0.45411534 Ry
     one-center paw contrib.   =  -11701.87683815 Ry

     total magnetization       =     0.00 Bohr mag/cell
     absolute magnetization    =    36.77 Bohr mag/cell

     convergence has been achieved in  18 iterations

     Writing output data file mnau2.save/

     General routines

     Parallel routines

     Hubbard U routines

   This run was terminated on:  13: 3:20  26Mar2019

   JOB DONE.