     Program PWSCF v.6.3MaX starts on 26Mar2019 at 13: 3:21

     R & G space division:  proc/nbgrp/npool/nimage =      16
     Waiting for input...
     Reading input from standard input

     Current dimensions of program PWSCF are:
     Max number of different atomic species (ntypx) = 10
     Max number of k-points (npk) =  40000
     Max angular momentum in pseudopotentials (lmaxx) =  3
     Message from routine read_upf::
     Pseudo file ./pseudo/Mn.pbe-spn-kjpaw_psl.0.3.1.UPF has been successfully fixed on the fly.
To avoid this message in the future you can permanently fix
 your pseudo files following instructions given in:
               file Mn.pbe-spn-kjpaw_psl.0.3.1.UPF: wavefunction(s)  3P 3D renormalized
     Message from routine read_upf::
     Pseudo file ./pseudo/Mn.pbe-spn-kjpaw_psl.0.3.1.UPF has been successfully fixed on the fly.
To avoid this message in the future you can permanently fix
 your pseudo files following instructions given in:
               file Mn.pbe-spn-kjpaw_psl.0.3.1.UPF: wavefunction(s)  3P 3D renormalized
     Message from routine read_upf::
     Pseudo file ./pseudo/Au.pbe-dn-kjpaw_psl.0.1.UPF has been successfully fixed on the fly.
To avoid this message in the future you can permanently fix
 your pseudo files following instructions given in:
               file Au.pbe-dn-kjpaw_psl.0.1.UPF: wavefunction(s)  6S 6P 5D renormalized

     bravais-lattice index     =            0
     lattice parameter (alat)  =      18.0125  a.u.
     unit-cell volume          =    2685.0513 (a.u.)^3
     number of atoms/cell      =           24
     number of atomic types    =            3
     number of electrons       =       296.00
     number of Kohn-Sham states=          178
     kinetic-energy cutoff     =      45.0000  Ry
     charge density cutoff     =     400.0000  Ry
     convergence threshold     =      1.0E-06
     mixing beta               =       0.1000
     number of iterations used =            8  plain     mixing
     Exchange-correlation      = SLA PW PBX PBC ( 1  4  3  4 0 0)

     celldm(1)=  18.012490  celldm(2)=   0.000000  celldm(3)=   0.000000
     celldm(4)=   0.000000  celldm(5)=   0.000000  celldm(6)=   0.000000

     crystal axes: (cart. coord. in units of alat)
               a(1) = (   0.707107  -0.707107   0.000000 )
               a(2) = (  -0.707107  -0.707107   0.000000 )
               a(3) = (   0.176777   0.176777  -0.459443 )

     reciprocal axes: (cart. coord. in units 2 pi/alat)
               b(1) = (  0.707107 -0.707107  0.000000 )
               b(2) = ( -0.707107 -0.707107 -0.544138 )
               b(3) = (  0.000000  0.000000 -2.176550 )

     PseudoPot. # 1 for Mn read from file:
     ./pseudo/Mn.pbe-spn-kjpaw_psl.0.3.1.UPF
     MD5 check sum: 7eef95dd2aae66803482eea66ebeebf1
     Pseudo is Projector augmented-wave + core cor, Zval = 15.0
     Generated using "atomic" code by A. Dal Corso v.5.0.99 svn rev. 10869
     Shape of augmentation charge: PSQ
     Using radial grid of 1187 points,  6 beta functions with:
                l(1) =   0
                l(2) =   0
                l(3) =   1
                l(4) =   1
                l(5) =   2
                l(6) =   2
     Q(r) pseudized with 0 coefficients

     PseudoPot. # 2 for Mn read from file:
     ./pseudo/Mn.pbe-spn-kjpaw_psl.0.3.1.UPF
     MD5 check sum: 7eef95dd2aae66803482eea66ebeebf1
     Pseudo is Projector augmented-wave + core cor, Zval = 15.0
     Generated using "atomic" code by A. Dal Corso v.5.0.99 svn rev. 10869
     Shape of augmentation charge: PSQ
     Using radial grid of 1187 points,  6 beta functions with:
                l(1) =   0
                l(2) =   0
                l(3) =   1
                l(4) =   1
                l(5) =   2
                l(6) =   2
     Q(r) pseudized with 0 coefficients

     PseudoPot. # 3 for Au read from file:
     ./pseudo/Au.pbe-dn-kjpaw_psl.0.1.UPF
     MD5 check sum: 5c9b92683623e7ae2ab3f8e525febab6
     Pseudo is Projector augmented-wave + core cor, Zval = 11.0
     Generated using "atomic" code by A. Dal Corso v.5.0.2 svn rev. 9415
     Shape of augmentation charge: PSQ
     Using radial grid of 1279 points,  6 beta functions with:
                l(1) =   0
                l(2) =   0
                l(3) =   1
                l(4) =   1
                l(5) =   2
                l(6) =   2
     Q(r) pseudized with 0 coefficients

     atomic species   valence    mass     pseudopotential
        Mn1           15.00    54.93800     Mn( 1.00)
        Mn2           15.00    54.93800     Mn( 1.00)
        Au            11.00   196.96600     Au( 1.00)

     Starting magnetic structure
     atomic species   magnetization
        Mn1          1.000
        Mn2         -1.000
        Au           0.000

     Full LDA+U calculation (l_max = 2) with parameters (eV):
     U(  1) =   3.1200   J(  1) =   0.7000   B(  1) =   0.0803
     U(  2) =   3.1200   J(  2) =   0.7000   B(  2) =   0.0803

      4 Sym. Ops., with inversion, found ( 2 have fractional translation)

   Cartesian axes

     site n.     atom                  positions (alat units)
         1           Mn1 tau(   1) = (   0.3535534  -0.3535534   0.0000000  )
         2           Mn2 tau(   2) = (   0.0000000   0.0000000   0.0000000  )
         3           Mn1 tau(   3) = (   0.0000000  -0.3535534   0.0000000  )
         4           Mn2 tau(   4) = (   0.3535534  -0.7071068   0.0000000  )
         5           Mn2 tau(   5) = (  -0.3535534  -0.3535534   0.0000000  )
         6           Mn1 tau(   6) = (   0.0000000  -0.7071068   0.0000000  )
         7           Mn2 tau(   7) = (  -0.3535534  -0.7071068   0.0000000  )
         8           Mn1 tau(   8) = (   0.0000000  -1.0606602   0.0000000  )
         9           Au  tau(   9) = (  -0.1767767  -0.1767767  -0.1470216  )
        10           Au  tau(  10) = (   0.1767767  -0.5303301  -0.1470216  )
        11           Au  tau(  11) = (  -0.1767767  -0.5303301  -0.1470216  )
        12           Au  tau(  12) = (   0.1767767  -0.8838835  -0.1470216  )
        13           Au  tau(  13) = (  -0.5303301  -0.5303301  -0.1470216  )
        14           Au  tau(  14) = (  -0.1767767  -0.8838835  -0.1470216  )
        15           Au  tau(  15) = (   0.5303301  -0.5303301  -0.1470216  )
        16           Au  tau(  16) = (   0.1767767  -0.1767767  -0.1470216  )
        17           Au  tau(  17) = (   0.3535534  -0.3535534  -0.3124210  )
        18           Au  tau(  18) = (   0.0000000   0.0000000  -0.3124210  )
        19           Au  tau(  19) = (   0.0000000  -0.3535534  -0.3124210  )
        20           Au  tau(  20) = (   0.3535534  -0.7071068  -0.3124210  )
        21           Au  tau(  21) = (  -0.3535534  -0.3535534  -0.3124210  )
        22           Au  tau(  22) = (  -0.0000000  -0.7071068  -0.3124210  )
        23           Au  tau(  23) = (  -0.3535534  -0.7071068  -0.3124210  )
        24           Au  tau(  24) = (   0.0000000  -1.0606602  -0.3124210  )

     number of k points=    30 (tetrahedron method)
                       cart. coord. in units 2pi/alat
        k(    1) = (   0.0000000   0.0000000   0.0000000), wk =   0.0156250
        k(    2) = (   0.0000000   0.0000000  -0.5441376), wk =   0.0312500
        k(    3) = (   0.0000000   0.0000000   1.0882752), wk =   0.0156250
        k(    4) = (  -0.1767767  -0.1767767  -0.1360344), wk =   0.0312500
        k(    5) = (  -0.1767767  -0.1767767  -0.6801720), wk =   0.0312500
        k(    6) = (  -0.1767767  -0.1767767   0.9522408), wk =   0.0312500
        k(    7) = (  -0.1767767  -0.1767767   0.4081032), wk =   0.0312500
        k(    8) = (   0.3535534   0.3535534   0.2720688), wk =   0.0156250
        k(    9) = (   0.3535534   0.3535534  -0.2720688), wk =   0.0312500
        k(   10) = (   0.3535534   0.3535534   1.3603439), wk =   0.0156250
        k(   11) = (   0.1767767  -0.1767767   0.0000000), wk =   0.0312500
        k(   12) = (   0.1767767  -0.1767767  -0.5441376), wk =   0.0625000
        k(   13) = (   0.1767767  -0.1767767   1.0882752), wk =   0.0312500
        k(   14) = (   0.0000000  -0.3535534  -0.1360344), wk =   0.0625000
        k(   15) = (   0.0000000  -0.3535534  -0.6801720), wk =   0.0625000
        k(   16) = (   0.0000000  -0.3535534   0.9522408), wk =   0.0625000
        k(   17) = (   0.0000000  -0.3535534   0.4081032), wk =   0.0625000
        k(   18) = (   0.5303301   0.1767767   0.2720688), wk =   0.0312500
        k(   19) = (   0.5303301   0.1767767  -0.2720688), wk =   0.0625000
        k(   20) = (   0.5303301   0.1767767   1.3603439), wk =   0.0312500
        k(   21) = (  -0.3535534   0.3535534   0.0000000), wk =   0.0156250
        k(   22) = (  -0.3535534   0.3535534  -0.5441376), wk =   0.0312500
        k(   23) = (  -0.3535534   0.3535534   1.0882752), wk =   0.0156250
        k(   24) = (  -0.5303301   0.1767767  -0.1360344), wk =   0.0312500
        k(   25) = (  -0.5303301   0.1767767  -0.6801720), wk =   0.0312500
        k(   26) = (  -0.5303301   0.1767767   0.9522408), wk =   0.0312500
        k(   27) = (  -0.5303301   0.1767767   0.4081032), wk =   0.0312500
        k(   28) = (   0.0000000   0.7071068   0.2720688), wk =   0.0156250
        k(   29) = (   0.0000000   0.7071068  -0.2720688), wk =   0.0312500
        k(   30) = (   0.0000000   0.7071068   1.3603439), wk =   0.0156250

     Check: negative/imaginary core charge=   -0.000006    0.000000

     Initial potential from superposition of free atoms

     starting charge  295.99426, renormalised to  296.00000
     Number of +U iterations with fixed ns =  0
     Starting occupations:
 --- enter write_ns ---
 LDA+U parameters:
U(  1) =   3.1200   J(  1) =   0.7000   B(  1) =   0.0803
U(  2) =   3.1200   J(  2) =   0.7000   B(  2) =   0.0803
atom    1   Tr[ns(na)] (up, down, total) =   5.00000  0.00000  5.00000
   spin  1
    eigenvalues:
  1.000  1.000  1.000  1.000  1.000
    eigenvectors:
  1.000  0.000  0.000  0.000  0.000
  0.000  1.000  0.000  0.000  0.000
  0.000  0.000  1.000  0.000  0.000
  0.000  0.000  0.000  1.000  0.000
  0.000  0.000  0.000  0.000  1.000
    occupations:
  1.000  0.000  0.000  0.000  0.000
  0.000  1.000  0.000  0.000  0.000
  0.000  0.000  1.000  0.000  0.000
  0.000  0.000  0.000  1.000  0.000
  0.000  0.000  0.000  0.000  1.000
   spin  2
    eigenvalues:
  0.000  0.000  0.000  0.000  0.000
    eigenvectors:
  1.000  0.000  0.000  0.000  0.000
  0.000  1.000  0.000  0.000  0.000
  0.000  0.000  1.000  0.000  0.000
  0.000  0.000  0.000  1.000  0.000
  0.000  0.000  0.000  0.000  1.000
    occupations:
  0.000  0.000  0.000  0.000  0.000
  0.000  0.000  0.000  0.000  0.000
  0.000  0.000  0.000  0.000  0.000
  0.000  0.000  0.000  0.000  0.000
  0.000  0.000  0.000  0.000  0.000
atomic mag. moment =     5.000000
atom    2   Tr[ns(na)] (up, down, total) =   0.00000  5.00000  5.00000
   spin  1
    eigenvalues:
  0.000  0.000  0.000  0.000  0.000
    eigenvectors:
  1.000  0.000  0.000  0.000  0.000
  0.000  1.000  0.000  0.000  0.000
  0.000  0.000  1.000  0.000  0.000
  0.000  0.000  0.000  1.000  0.000
  0.000  0.000  0.000  0.000  1.000
    occupations:
[...]
   spin  1
    eigenvalues:
  1.003  1.003  1.003  1.003  1.004
    eigenvectors:
  0.000  0.000  0.000  1.000  0.000
  0.000  0.500  0.500  0.000  0.000
  0.000  0.500  0.500  0.000  0.000
  0.000  0.000  0.000  0.000  1.000
  1.000  0.000  0.000  0.000  0.000
    occupations:
  1.003 -0.000 -0.000 -0.000  0.000
 -0.000  1.003  0.000 -0.000  0.000
 -0.000  0.000  1.003  0.000  0.000
 -0.000 -0.000  0.000  1.004 -0.000
  0.000  0.000  0.000 -0.000  1.003
   spin  2
    eigenvalues:
  0.041  0.052  0.055  0.056  0.071
    eigenvectors:
  0.000  0.969  0.000  0.031  0.000
  0.000  0.015  0.500  0.482  0.003
  0.000  0.015  0.500  0.482  0.003
  1.000  0.000  0.000  0.000  0.000
  0.000  0.001  0.000  0.006  0.993
    occupations:
  0.053  0.000  0.000 -0.000 -0.000
  0.000  0.055  0.000  0.000  0.001
  0.000  0.000  0.055 -0.000  0.001
 -0.000  0.000 -0.000  0.041 -0.000
 -0.000  0.001  0.001 -0.000  0.071
atomic mag. moment =     4.739007
N of occupied +U levels =   42.320255
 --- exit write_ns ---

     total energy              =  -14679.21016165 Ry
     Harris-Foulkes estimate   =  -14669.84283107 Ry
     estimated scf accuracy    <      21.28595060 Ry

     total magnetization       =    -0.00 Bohr mag/cell
     absolute magnetization    =    43.52 Bohr mag/cell

     iteration #  2     ecut=    45.00 Ry     beta= 0.10
     Davidson diagonalization with overlap
     ethr =  7.19E-03,  avg # of iterations =  1.0

[...]

     total energy              =  -14693.93744473 Ry
     Harris-Foulkes estimate   =  -14693.93744037 Ry
     estimated scf accuracy    <       0.00000459 Ry

[...]

     iteration # 18     ecut=    45.00 Ry     beta= 0.10
     Davidson diagonalization with overlap
     ethr =  1.55E-09,  avg # of iterations =  2.4

     Magnetic moment per site:
     atom:    1    charge:   13.5415    magn:    4.2092    constr:    0.0000
     atom:    2    charge:   13.5416    magn:   -4.2092    constr:    0.0000
     atom:    3    charge:   13.5375    magn:    4.2424    constr:    0.0000
     atom:    4    charge:   13.5374    magn:   -4.2424    constr:    0.0000
     atom:    5    charge:   13.5416    magn:   -4.2092    constr:    0.0000
     atom:    6    charge:   13.5415    magn:    4.2092    constr:    0.0000
     atom:    7    charge:   13.5374    magn:   -4.2424    constr:    0.0000
     atom:    8    charge:   13.5375    magn:    4.2424    constr:    0.0000
     atom:    9    charge:    9.0908    magn:   -0.0254    constr:    0.0000
     atom:   10    charge:    9.0909    magn:    0.0254    constr:    0.0000
     atom:   11    charge:    9.0911    magn:   -0.0108    constr:    0.0000
     atom:   12    charge:    9.0911    magn:    0.0108    constr:    0.0000
     atom:   13    charge:    9.0908    magn:   -0.0254    constr:    0.0000
     atom:   14    charge:    9.0909    magn:    0.0254    constr:    0.0000
     atom:   15    charge:    9.0911    magn:   -0.0108    constr:    0.0000
     atom:   16    charge:    9.0911    magn:    0.0108    constr:    0.0000
     atom:   17    charge:    9.0909    magn:    0.0254    constr:    0.0000
     atom:   18    charge:    9.0908    magn:   -0.0254    constr:    0.0000
     atom:   19    charge:    9.0911    magn:    0.0108    constr:    0.0000
     atom:   20    charge:    9.0911    magn:   -0.0108    constr:    0.0000
     atom:   21    charge:    9.0908    magn:   -0.0254    constr:    0.0000
     atom:   22    charge:    9.0909    magn:    0.0254    constr:    0.0000
     atom:   23    charge:    9.0911    magn:   -0.0108    constr:    0.0000
     atom:   24    charge:    9.0911    magn:    0.0108    constr:    0.0000

     End of self-consistent calculation
 --- enter write_ns ---
 LDA+U parameters:
U(  1) =   3.1200   J(  1) =   0.7000   B(  1) =   0.0803
U(  2) =   3.1200   J(  2) =   0.7000   B(  2) =   0.0803
atom    1   Tr[ns(na)] (up, down, total) =   4.96493  0.75621  5.72114
   spin  1
    eigenvalues:
  0.982  0.991  0.993  0.997  1.002
    eigenvectors:
  0.002  0.003  0.032  0.948  0.014
  0.004  0.419  0.548  0.029  0.000
  0.004  0.570  0.419  0.007  0.001
  0.000  0.000  0.001  0.013  0.985
  0.990  0.007  0.000  0.002  0.000
    occupations:
  0.997  0.001  0.000 -0.001  0.001
  0.001  0.992  0.001 -0.000  0.001
  0.000  0.001  0.992  0.000 -0.001
 -0.001 -0.000  0.000  1.001  0.000
  0.001  0.001 -0.001  0.000  0.982
   spin  2
    eigenvalues:
  0.069  0.130  0.141  0.155  0.261
    eigenvectors:
  0.000  0.855  0.000  0.130  0.015
  0.001  0.110  0.147  0.743  0.000
  0.001  0.025  0.838  0.119  0.016
  0.998  0.000  0.000  0.001  0.000
  0.000  0.009  0.015  0.007  0.969
    occupations:
  0.135  0.008  0.005 -0.000 -0.015
  0.008  0.150  0.004  0.003  0.002
  0.005  0.004  0.144  0.002 -0.014
 -0.000  0.003  0.002  0.069  0.001
 -0.015  0.002 -0.014  0.001  0.258
atomic mag. moment =     4.208724
atom    2   Tr[ns(na)] (up, down, total) =   0.75623  4.96493  5.72117
   spin  1
    eigenvalues:
  0.069  0.130  0.141  0.155  0.261
    eigenvectors:
  0.000  0.855  0.000  0.130  0.015
  0.001  0.110  0.147  0.743  0.000
  0.001  0.025  0.838  0.120  0.016
  0.998  0.000  0.000  0.001  0.000
  0.000  0.009  0.015  0.007  0.969
    occupations:
  0.135  0.008  0.005 -0.000 -0.015
  0.008  0.150  0.004  0.003  0.002
  0.005  0.004  0.144  0.002 -0.014
 -0.000  0.003  0.002  0.069  0.001
 -0.015  0.002 -0.014  0.001  0.258
   spin  2
    eigenvalues:
  0.982  0.991  0.993  0.997  1.002
    eigenvectors:
  0.002  0.003  0.032  0.948  0.014
  0.004  0.419  0.548  0.029  0.000
  0.004  0.570  0.419  0.007  0.001
  0.000  0.000  0.001  0.013  0.985
  0.990  0.007  0.000  0.002  0.000
    occupations:
  0.997  0.001  0.000 -0.001  0.001
  0.001  0.992  0.001 -0.000  0.001
  0.000  0.001  0.992  0.000 -0.001
 -0.001 -0.000  0.000  1.001  0.000
  0.001  0.001 -0.001  0.000  0.982
atomic mag. moment =    -4.208698
atom    3   Tr[ns(na)] (up, down, total) =   4.96956  0.73181  5.70137
   spin  1
    eigenvalues:
  0.985  0.992  0.993  0.997  1.002
    eigenvectors:
  0.000  0.000  0.045  0.955  0.000
  0.003  0.499  0.475  0.022  0.001
  0.003  0.499  0.475  0.022  0.001
  0.000  0.002  0.000  0.000  0.998
  0.993  0.000  0.005  0.001  0.000
    occupations:
  0.997 -0.001 -0.001 -0.000  0.000
 -0.001  0.993  0.000 -0.000 -0.000
 -0.001  0.000  0.993  0.000 -0.000
 -0.000 -0.000  0.000  1.002 -0.000
  0.000 -0.000 -0.000 -0.000  0.985
   spin  2
    eigenvalues:
  0.070  0.125  0.142  0.153  0.242
    eigenvectors:
  0.000  0.979  0.000  0.020  0.000
  0.002  0.010  0.498  0.467  0.023
  0.002  0.010  0.498  0.467  0.023
  0.997  0.000  0.003  0.000  0.000
  0.000  0.000  0.000  0.046  0.953
    occupations:
  0.125 -0.003 -0.003 -0.000 -0.001
 -0.003  0.149  0.007 -0.003  0.013
 -0.003  0.007  0.149  0.003  0.013
 -0.000 -0.003  0.003  0.070 -0.000
 -0.001  0.013  0.013 -0.000  0.238
atomic mag. moment =     4.237749
atom    4   Tr[ns(na)] (up, down, total) =   0.73174  4.96954  5.70128
   spin  1
    eigenvalues:
  0.070  0.125  0.142  0.153  0.242
    eigenvectors:
  0.000  0.979  0.000  0.020  0.000
  0.002  0.010  0.498  0.467  0.023
  0.002  0.010  0.498  0.467  0.023
  0.997  0.000  0.003  0.000  0.000
  0.000  0.000  0.000  0.046  0.953
    occupations:
  0.125 -0.003 -0.003 -0.000 -0.001
 -0.003  0.149  0.007 -0.003  0.013
 -0.003  0.007  0.149  0.003  0.013
 -0.000 -0.003  0.003  0.070 -0.000
 -0.001  0.013  0.013 -0.000  0.238
   spin  2
    eigenvalues:
  0.985  0.992  0.993  0.997  1.002
    eigenvectors:
  0.000  0.000  0.045  0.955  0.000
  0.003  0.499  0.475  0.022  0.001
  0.003  0.499  0.475  0.022  0.001
  0.000  0.002  0.000  0.000  0.998
  0.993  0.000  0.005  0.001  0.000
    occupations:
  0.997 -0.001 -0.001 -0.000  0.000
 -0.001  0.993  0.000 -0.000 -0.000
 -0.001  0.000  0.993  0.000 -0.000
 -0.000 -0.000  0.000  1.002 -0.000
  0.000 -0.000 -0.000 -0.000  0.985
atomic mag. moment =    -4.237799
atom    5   Tr[ns(na)] (up, down, total) =   0.75623  4.96493  5.72117
   spin  1
    eigenvalues:
  0.069  0.130  0.141  0.155  0.261
    eigenvectors:
  0.000  0.855  0.000  0.130  0.015
  0.001  0.025  0.838  0.120  0.016
  0.001  0.110  0.147  0.743  0.000
  0.998  0.000  0.000  0.001  0.000
  0.000  0.009  0.015  0.007  0.969
    occupations:
  0.135  0.005  0.008  0.000 -0.015
  0.005  0.144  0.004 -0.002 -0.014
  0.008  0.004  0.150 -0.003  0.002
  0.000 -0.002 -0.003  0.069 -0.001
 -0.015 -0.014  0.002 -0.001  0.258
   spin  2
    eigenvalues:
  0.982  0.991  0.993  0.997  1.002
    eigenvectors:
  0.002  0.003  0.032  0.948  0.014
  0.004  0.570  0.419  0.007  0.001
  0.004  0.419  0.548  0.029  0.000
  0.000  0.000  0.001  0.013  0.985
  0.990  0.007  0.000  0.002  0.000
    occupations:
  0.997  0.000  0.001  0.001  0.001
  0.000  0.992  0.001 -0.000 -0.001
  0.001  0.001  0.992  0.000  0.001
  0.001 -0.000  0.000  1.001 -0.000
  0.001 -0.001  0.001 -0.000  0.982
atomic mag. moment =    -4.208698
atom    6   Tr[ns(na)] (up, down, total) =   4.96493  0.75621  5.72114
   spin  1
    eigenvalues:
  0.982  0.991  0.993  0.997  1.002
    eigenvectors:
  0.002  0.003  0.032  0.948  0.014
  0.004  0.570  0.419  0.007  0.001
  0.004  0.419  0.548  0.029  0.000
  0.000  0.000  0.001  0.013  0.985
  0.990  0.007  0.000  0.002  0.000
    occupations:
  0.997  0.000  0.001  0.001  0.001
  0.000  0.992  0.001 -0.000 -0.001
  0.001  0.001  0.992  0.000  0.001
  0.001 -0.000  0.000  1.001 -0.000
  0.001 -0.001  0.001 -0.000  0.982
   spin  2
    eigenvalues:
  0.069  0.130  0.141  0.155  0.261
    eigenvectors:
  0.000  0.855  0.000  0.130  0.015
  0.001  0.025  0.838  0.119  0.016
  0.001  0.110  0.147  0.743  0.000
  0.998  0.000  0.000  0.001  0.000
  0.000  0.009  0.015  0.007  0.969
    occupations:
  0.135  0.005  0.008  0.000 -0.015
  0.005  0.144  0.004 -0.002 -0.014
  0.008  0.004  0.150 -0.003  0.002
  0.000 -0.002 -0.003  0.069 -0.001
 -0.015 -0.014  0.002 -0.001  0.258
atomic mag. moment =     4.208724
atom    7   Tr[ns(na)] (up, down, total) =   0.73174  4.96954  5.70128
   spin  1
    eigenvalues:
  0.070  0.125  0.142  0.153  0.242
    eigenvectors:
  0.000  0.979  0.000  0.020  0.000
  0.002  0.010  0.498  0.467  0.023
  0.002  0.010  0.498  0.467  0.023
  0.997  0.000  0.003  0.000  0.000
  0.000  0.000  0.000  0.046  0.953
    occupations:
  0.125 -0.003 -0.003 -0.000 -0.001
 -0.003  0.149  0.007 -0.003  0.013
 -0.003  0.007  0.149  0.003  0.013
 -0.000 -0.003  0.003  0.070 -0.000
 -0.001  0.013  0.013 -0.000  0.238
   spin  2
    eigenvalues:
  0.985  0.992  0.993  0.997  1.002
    eigenvectors:
  0.000  0.000  0.045  0.955  0.000
  0.003  0.499  0.475  0.022  0.001
  0.003  0.499  0.475  0.022  0.001
  0.000  0.002  0.000  0.000  0.998
  0.993  0.000  0.005  0.001  0.000
    occupations:
  0.997 -0.001 -0.001 -0.000  0.000
 -0.001  0.993  0.000 -0.000 -0.000
 -0.001  0.000  0.993  0.000 -0.000
 -0.000 -0.000  0.000  1.002 -0.000
  0.000 -0.000 -0.000 -0.000  0.985
atomic mag. moment =    -4.237799
atom    8   Tr[ns(na)] (up, down, total) =   4.96956  0.73181  5.70137
   spin  1
    eigenvalues:
  0.985  0.992  0.993  0.997  1.002
    eigenvectors:
  0.000  0.000  0.045  0.955  0.000
  0.003  0.499  0.475  0.022  0.001
  0.003  0.499  0.475  0.022  0.001
  0.000  0.002  0.000  0.000  0.998
  0.993  0.000  0.005  0.001  0.000
    occupations:
  0.997 -0.001 -0.001 -0.000  0.000
 -0.001  0.993  0.000 -0.000 -0.000
 -0.001  0.000  0.993  0.000 -0.000
 -0.000 -0.000  0.000  1.002 -0.000
  0.000 -0.000 -0.000 -0.000  0.985
   spin  2
    eigenvalues:
  0.070  0.125  0.142  0.153  0.242
    eigenvectors:
  0.000  0.979  0.000  0.020  0.000
  0.002  0.010  0.498  0.467  0.023
  0.002  0.010  0.498  0.467  0.023
  0.997  0.000  0.003  0.000  0.000
  0.000  0.000  0.000  0.046  0.953
    occupations:
  0.125 -0.003 -0.003 -0.000 -0.001
 -0.003  0.149  0.007 -0.003  0.013
 -0.003  0.007  0.149  0.003  0.013
 -0.000 -0.003  0.003  0.070 -0.000
 -0.001  0.013  0.013 -0.000  0.238
atomic mag. moment =     4.237749
N of occupied +U levels =   45.689916
 --- exit write_ns ---

 ------ SPIN UP ------------

          k = 0.0000 0.0000 0.0000 ( 13629 PWs)   bands (ev):

   -66.4503 -66.4502 -66.4062 -66.4062 -61.8600 -61.8599 -61.8488 -61.8487
   -35.2192 -35.2192 -35.1895 -35.1891 -35.1816 -35.1813 -35.1645 -35.1636
   -35.1544 -35.1538 -35.1038 -35.1036 -30.6908 -30.6905 -30.6902 -30.6882
   -30.6855 -30.6835 -30.6801 -30.6801 -30.6727 -30.6726 -30.6666 -30.6659
     5.9671   7.6157   7.6185   8.1390   8.1418   8.4042   8.4939   8.5380
     8.7045   8.7072   9.1459   9.1753   9.4170   9.4280   9.4633   9.4656
     9.4687   9.5089   9.5638   9.5998   9.6098   9.6456   9.6457   9.6629
     9.6872   9.7001   9.7416   9.8561   9.8606   9.9362   9.9453   9.9512
     9.9748   9.9873  10.0738  10.0746  10.0926  10.1671  10.2146  10.2477
    10.2592  10.2613  10.2700  10.3137  10.3869  10.4340  10.4739  10.4973
    10.5112  10.5217  10.5933  10.6863  10.6878  10.7161  10.8016  10.8024
    10.8704  10.9476  11.0471  11.0489  11.0862  11.0997  11.1317  11.1375
    11.2095  11.2457  11.3284  11.3382  11.3900  11.5884  11.6484  11.7892
    11.7924  11.8184  11.8218  11.8234  11.8326  11.8879  11.9329  12.0782
    12.0951  12.1034  12.1937  12.2427  12.2444  12.2684  12.3310  12.3420
    12.3576  12.3898  12.4350  12.4439  12.5115  12.5220  12.5404  12.5515
    12.6403  12.6959  12.6974  12.7319  12.7366  12.8868  12.9188  12.9915
    13.0761  13.1453  13.2748  13.2755  13.2919  14.1426  14.9774  15.0009
    15.0876  15.1227  15.1418  15.8532  15.9321  16.4799  16.7134  16.7939
    16.8779  16.8866  17.0081  17.0838  17.1706  17.1888  17.3396  17.4387
    17.5012  17.6566  17.6761  17.6887  17.8243  17.8458  18.1646  18.1728
    18.6077  18.7610  19.1834  19.3177  19.3628  19.4286  19.4988  19.5573
    19.6933  19.6996

[...]

          k =-0.1768-0.1768-0.1360 ( 13673 PWs)   bands (ev):

[...]

 ------ SPIN DOWN ----------

[...]

          k =-0.5303 0.1768 0.4081 ( 13670 PWs)   bands (ev):

[...]

          k = 0.0000 0.7071 1.3603 ( 13696 PWs)   bands (ev):

   -66.4498 -66.4498 -66.4062 -66.4062 -61.8604 -61.8604 -61.8487 -61.8487
   -35.2187 -35.2187 -35.1888 -35.1888 -35.1815 -35.1815 -35.1635 -35.1635
   -35.1541 -35.1541 -35.1037 -35.1037 -30.6913 -30.6913 -30.6897 -30.6897
   -30.6844 -30.6844 -30.6803 -30.6803 -30.6728 -30.6728 -30.6661 -30.6661
     7.8384   7.8384   7.9965   7.9965   8.6180   8.6180   8.6272   8.6272
     8.8317   8.8317   8.8448   8.8448   9.0566   9.0566   9.0634   9.0634
     9.1185   9.1185   9.2617   9.2617   9.2839   9.2839   9.4929   9.4929
     9.5070   9.5070   9.6371   9.6371   9.6537   9.6537   9.7059   9.7059
     9.8323   9.8323   9.9469   9.9469  10.0500  10.0500  10.1639  10.1639
    10.2136  10.2136  10.2904  10.2904  10.4799  10.4799  10.6538  10.6538
    10.8525  10.8525  10.9121  10.9121  11.0049  11.0049  11.0841  11.0841
    11.2103  11.2103  11.2259  11.2259  11.3578  11.3578  11.4794  11.4794
    11.5344  11.5344  11.6179  11.6179  11.7350  11.7350  11.9251  11.9251
    11.9500  11.9500  12.0031  12.0031  12.0065  12.0065  12.0418  12.0418
    12.0818  12.0818  12.1009  12.1009  12.2235  12.2235  12.2615  12.2615
    12.3002  12.3002  12.3631  12.3631  12.4186  12.4186  12.5393  12.5393
    12.6225  12.6225  12.6670  12.6670  12.7216  12.7216  12.8692  12.8692
    13.1380  13.1380  13.3824  13.3824  13.4078  13.4078  13.8139  13.8139
    14.2780  14.2780  14.8785  14.8785  15.6214  15.6214  16.3128  16.3128
    16.4502  16.4502  16.7220  16.7220  17.2710  17.2710  17.3056  17.3056
    17.4134  17.4134  17.4907  17.4907  17.5823  17.5823  17.7058  17.7058
    18.0216  18.0216  18.2326  18.2326  18.3391  18.3391  18.5325  18.5325
    20.5585  20.5585

     the Fermi energy is    15.5896 ev

!    total energy              =  -14693.93746786 Ry
     Harris-Foulkes estimate   =  -14693.93744764 Ry
     estimated scf accuracy    <       0.00000047 Ry

     total all-electron energy =   -626921.533190 Ry

     The total energy is the sum of the following terms:

     one-electron contribution =    -698.41703475 Ry
     hartree contribution      =     651.55487775 Ry
     xc contribution           =    -738.09728312 Ry
     ewald contribution        =   -2207.56121140 Ry
     Hubbard energy            =       0.45772655 Ry
     one-center paw contrib.   =  -11701.87454288 Ry

     total magnetization       =     0.00 Bohr mag/cell
     absolute magnetization    =    36.80 Bohr mag/cell

     convergence has been achieved in  18 iterations

     Writing output data file mnau2.save/

     General routines

     Parallel routines

     Hubbard U routines

   This run was terminated on:  13:20:46  26Mar2019

   JOB DONE.