     Program PWSCF v.6.3MaX starts on 26Mar2019 at 12: 1:49

     R & G space division:  proc/nbgrp/npool/nimage =      16
     Waiting for input...
     Reading input from standard input

     Current dimensions of program PWSCF are:
     Max number of different atomic species (ntypx) = 10
     Max number of k-points (npk) =  40000
     Max angular momentum in pseudopotentials (lmaxx) =  3
     Message from routine read_upf::
     Pseudo file ./pseudo/Mn.pbe-spn-kjpaw_psl.0.3.1.UPF has been successfully fixed on the fly.
To avoid this message in the future you can permanently fix
 your pseudo files following instructions given in:
               file Mn.pbe-spn-kjpaw_psl.0.3.1.UPF: wavefunction(s)  3P 3D renormalized
     Message from routine read_upf::
     Pseudo file ./pseudo/Mn.pbe-spn-kjpaw_psl.0.3.1.UPF has been successfully fixed on the fly.
To avoid this message in the future you can permanently fix
 your pseudo files following instructions given in:
               file Mn.pbe-spn-kjpaw_psl.0.3.1.UPF: wavefunction(s)  3P 3D renormalized
     Message from routine read_upf::
     Pseudo file ./pseudo/Au.pbe-dn-kjpaw_psl.0.1.UPF has been successfully fixed on the fly.
To avoid this message in the future you can permanently fix
 your pseudo files following instructions given in:
               file Au.pbe-dn-kjpaw_psl.0.1.UPF: wavefunction(s)  6S 6P 5D renormalized

     Found symmetry operation: I + (  0.5000  0.0000  0.0000)
     This is a supercell, fractional translations are disabled

     bravais-lattice index     =            0
     lattice parameter (alat)  =      18.0125  a.u.
     unit-cell volume          =    2685.0513 (a.u.)^3
     number of atoms/cell      =           24
     number of atomic types    =            3
     number of electrons       =       296.00
     number of Kohn-Sham states=          178
     kinetic-energy cutoff     =      45.0000  Ry
     charge density cutoff     =     400.0000  Ry
     convergence threshold     =      1.0E-06
     mixing beta               =       0.1000
     number of iterations used =            8  plain     mixing
     Exchange-correlation      = SLA PW PBX PBC ( 1  4  3  4 0 0)

     celldm(1)=  18.012490  celldm(2)=   0.000000  celldm(3)=   0.000000
     celldm(4)=   0.000000  celldm(5)=   0.000000  celldm(6)=   0.000000

     crystal axes: (cart. coord. in units of alat)
               a(1) = (   0.707107  -0.707107   0.000000 )
               a(2) = (  -0.707107  -0.707107   0.000000 )
               a(3) = (   0.176777   0.176777  -0.459443 )

     reciprocal axes: (cart. coord. in units 2 pi/alat)
               b(1) = (  0.707107 -0.707107  0.000000 )
               b(2) = ( -0.707107 -0.707107 -0.544138 )
               b(3) = (  0.000000  0.000000 -2.176550 )

     PseudoPot. # 1 for Mn read from file:
     ./pseudo/Mn.pbe-spn-kjpaw_psl.0.3.1.UPF
     MD5 check sum: 7eef95dd2aae66803482eea66ebeebf1
     Pseudo is Projector augmented-wave + core cor, Zval = 15.0
     Generated using "atomic" code by A. Dal Corso v.5.0.99 svn rev. 10869
     Shape of augmentation charge: PSQ
     Using radial grid of 1187 points,  6 beta functions with:
                l(1) =   0
                l(2) =   0
                l(3) =   1
                l(4) =   1
                l(5) =   2
                l(6) =   2
     Q(r) pseudized with 0 coefficients

     PseudoPot. # 2 for Mn read from file:
     ./pseudo/Mn.pbe-spn-kjpaw_psl.0.3.1.UPF
     MD5 check sum: 7eef95dd2aae66803482eea66ebeebf1
     Pseudo is Projector augmented-wave + core cor, Zval = 15.0
     Generated using "atomic" code by A. Dal Corso v.5.0.99 svn rev. 10869
     Shape of augmentation charge: PSQ
     Using radial grid of 1187 points,  6 beta functions with:
                l(1) =   0
                l(2) =   0
                l(3) =   1
                l(4) =   1
                l(5) =   2
                l(6) =   2
     Q(r) pseudized with 0 coefficients

     PseudoPot. # 3 for Au read from file:
     ./pseudo/Au.pbe-dn-kjpaw_psl.0.1.UPF
     MD5 check sum: 5c9b92683623e7ae2ab3f8e525febab6
     Pseudo is Projector augmented-wave + core cor, Zval = 11.0
     Generated using "atomic" code by A. Dal Corso v.5.0.2 svn rev. 9415
     Shape of augmentation charge: PSQ
     Using radial grid of 1279 points,  6 beta functions with:
                l(1) =   0
                l(2) =   0
                l(3) =   1
                l(4) =   1
                l(5) =   2
                l(6) =   2
     Q(r) pseudized with 0 coefficients

     atomic species   valence    mass     pseudopotential
        Mn1           15.00    54.93800     Mn( 1.00)
        Mn2           15.00    54.93800     Mn( 1.00)
        Au            11.00   196.96600     Au( 1.00)

     Starting magnetic structure
     atomic species   magnetization
        Mn1          1.000
        Mn2         -1.000
        Au           0.000

     Full LDA+U calculation (l_max = 2) with parameters (eV):
     U(  1) =   3.1200   J(  1) =   0.7000   B(  1) =   0.0803
     U(  2) =   3.1200   J(  2) =   0.7000   B(  2) =   0.0803

      4 Sym. Ops., with inversion, found

   Cartesian axes

     site n.     atom                  positions (alat units)
         1           Mn1 tau(   1) = (   0.3535534  -0.3535534   0.0000000  )
         2           Mn1 tau(   2) = (   0.0000000   0.0000000   0.0000000  )
         3           Mn2 tau(   3) = (   0.0000000  -0.3535534   0.0000000  )
         4           Mn2 tau(   4) = (   0.3535534  -0.7071068   0.0000000  )
         5           Mn1 tau(   5) = (  -0.3535534  -0.3535534   0.0000000  )
         6           Mn1 tau(   6) = (   0.0000000  -0.7071068   0.0000000  )
         7           Mn2 tau(   7) = (  -0.3535534  -0.7071068   0.0000000  )
         8           Mn2 tau(   8) = (   0.0000000  -1.0606602   0.0000000  )
         9           Au  tau(   9) = (  -0.1767767  -0.1767767  -0.1470216  )
        10           Au  tau(  10) = (   0.1767767  -0.5303301  -0.1470216  )
        11           Au  tau(  11) = (  -0.1767767  -0.5303301  -0.1470216  )
        12           Au  tau(  12) = (   0.1767767  -0.8838835  -0.1470216  )
        13           Au  tau(  13) = (  -0.5303301  -0.5303301  -0.1470216  )
        14           Au  tau(  14) = (  -0.1767767  -0.8838835  -0.1470216  )
        15           Au  tau(  15) = (   0.5303301  -0.5303301  -0.1470216  )
        16           Au  tau(  16) = (   0.1767767  -0.1767767  -0.1470216  )
        17           Au  tau(  17) = (   0.3535534  -0.3535534  -0.3124210  )
        18           Au  tau(  18) = (   0.0000000   0.0000000  -0.3124210  )
        19           Au  tau(  19) = (   0.0000000  -0.3535534  -0.3124210  )
        20           Au  tau(  20) = (   0.3535534  -0.7071068  -0.3124210  )
        21           Au  tau(  21) = (  -0.3535534  -0.3535534  -0.3124210  )
        22           Au  tau(  22) = (  -0.0000000  -0.7071068  -0.3124210  )
        23           Au  tau(  23) = (  -0.3535534  -0.7071068  -0.3124210  )
        24           Au  tau(  24) = (   0.0000000  -1.0606602  -0.3124210  )

     number of k points=    30 (tetrahedron method)
                       cart. coord. in units 2pi/alat
        k(    1) = (   0.0000000   0.0000000   0.0000000), wk =   0.0156250
        k(    2) = (   0.0000000   0.0000000  -0.5441376), wk =   0.0312500
        k(    3) = (   0.0000000   0.0000000   1.0882752), wk =   0.0156250
        k(    4) = (  -0.1767767  -0.1767767  -0.1360344), wk =   0.0312500
        k(    5) = (  -0.1767767  -0.1767767  -0.6801720), wk =   0.0312500
        k(    6) = (  -0.1767767  -0.1767767   0.9522408), wk =   0.0312500
        k(    7) = (  -0.1767767  -0.1767767   0.4081032), wk =   0.0312500
        k(    8) = (   0.3535534   0.3535534   0.2720688), wk =   0.0156250
        k(    9) = (   0.3535534   0.3535534  -0.2720688), wk =   0.0312500
        k(   10) = (   0.3535534   0.3535534   1.3603439), wk =   0.0156250
        k(   11) = (   0.1767767  -0.1767767   0.0000000), wk =   0.0312500
        k(   12) = (   0.1767767  -0.1767767  -0.5441376), wk =   0.0625000
        k(   13) = (   0.1767767  -0.1767767   1.0882752), wk =   0.0312500
        k(   14) = (   0.0000000  -0.3535534  -0.1360344), wk =   0.0625000
        k(   15) = (   0.0000000  -0.3535534  -0.6801720), wk =   0.0625000
        k(   16) = (   0.0000000  -0.3535534   0.9522408), wk =   0.0625000
        k(   17) = (   0.0000000  -0.3535534   0.4081032), wk =   0.0625000
        k(   18) = (   0.5303301   0.1767767   0.2720688), wk =   0.0312500
        k(   19) = (   0.5303301   0.1767767  -0.2720688), wk =   0.0625000
        k(   20) = (   0.5303301   0.1767767   1.3603439), wk =   0.0312500
        k(   21) = (  -0.3535534   0.3535534   0.0000000), wk =   0.0156250
        k(   22) = (  -0.3535534   0.3535534  -0.5441376), wk =   0.0312500
        k(   23) = (  -0.3535534   0.3535534   1.0882752), wk =   0.0156250
        k(   24) = (  -0.5303301   0.1767767  -0.1360344), wk =   0.0312500
        k(   25) = (  -0.5303301   0.1767767  -0.6801720), wk =   0.0312500
        k(   26) = (  -0.5303301   0.1767767   0.9522408), wk =   0.0312500
        k(   27) = (  -0.5303301   0.1767767   0.4081032), wk =   0.0312500
        k(   28) = (   0.0000000   0.7071068   0.2720688), wk =   0.0156250
        k(   29) = (   0.0000000   0.7071068  -0.2720688), wk =   0.0312500
        k(   30) = (   0.0000000   0.7071068   1.3603439), wk =   0.0156250

     Check: negative/imaginary core charge=   -0.000006    0.000000

     Initial potential from superposition of free atoms

     starting charge  295.99426, renormalised to  296.00000
     Number of +U iterations with fixed ns =  0
     Starting occupations:
 --- enter write_ns ---
 LDA+U parameters:
U(  1) =   3.1200   J(  1) =   0.7000   B(  1) =   0.0803
U(  2) =   3.1200   J(  2) =   0.7000   B(  2) =   0.0803
atom    1   Tr[ns(na)] (up, down, total) =   5.00000  0.00000  5.00000
   spin  1
    eigenvalues:
  1.000  1.000  1.000  1.000  1.000
    eigenvectors:
  1.000  0.000  0.000  0.000  0.000
  0.000  1.000  0.000  0.000  0.000
  0.000  0.000  1.000  0.000  0.000
  0.000  0.000  0.000  1.000  0.000
  0.000  0.000  0.000  0.000  1.000
    occupations:
  1.000  0.000  0.000  0.000  0.000
  0.000  1.000  0.000  0.000  0.000
  0.000  0.000  1.000  0.000  0.000
  0.000  0.000  0.000  1.000  0.000
  0.000  0.000  0.000  0.000  1.000
   spin  2
    eigenvalues:
  0.000  0.000  0.000  0.000  0.000
    eigenvectors:
  1.000  0.000  0.000  0.000  0.000
  0.000  1.000  0.000  0.000  0.000
  0.000  0.000  1.000  0.000  0.000
  0.000  0.000  0.000  1.000  0.000
  0.000  0.000  0.000  0.000  1.000
    occupations:
  0.000  0.000  0.000  0.000  0.000
  0.000  0.000  0.000  0.000  0.000
  0.000  0.000  0.000  0.000  0.000
  0.000  0.000  0.000  0.000  0.000
  0.000  0.000  0.000  0.000  0.000
atomic mag. moment =     5.000000
atom    2   Tr[ns(na)] (up, down, total) =   5.00000  0.00000  5.00000
   spin  1
    eigenvalues:
  1.000  1.000  1.000  1.000  1.000
    eigenvectors:
  1.000  0.000  0.000  0.000  0.000
  0.000  1.000  0.000  0.000  0.000
  0.000  0.000  1.000  0.000  0.000
[...]
   spin  1
    eigenvalues:
  0.044  0.053  0.054  0.055  0.072
    eigenvectors:
  0.000  0.976  0.000  0.024  0.000
  0.000  0.013  0.493  0.494  0.000
  0.000  0.011  0.507  0.482  0.000
  1.000  0.000  0.000  0.000  0.000
  0.000  0.000  0.000  0.000  0.999
    occupations:
  0.053  0.000  0.000 -0.000  0.000
  0.000  0.054  0.000 -0.000  0.000
  0.000  0.000  0.054  0.000  0.000
 -0.000 -0.000  0.000  0.044 -0.000
  0.000  0.000  0.000 -0.000  0.072
   spin  2
    eigenvalues:
  1.003  1.003  1.003  1.003  1.003
    eigenvectors:
  0.001  0.000  0.000  0.999  0.000
  0.000  0.933  0.067  0.000  0.000
  0.000  0.067  0.933  0.000  0.000
  0.000  0.000  0.000  0.000  1.000
  0.999  0.000  0.000  0.001  0.000
    occupations:
  1.003  0.000  0.000  0.000 -0.000
  0.000  1.003 -0.000  0.000  0.000
  0.000 -0.000  1.003  0.000 -0.000
  0.000  0.000  0.000  1.003 -0.000
 -0.000  0.000 -0.000 -0.000  1.003
atomic mag. moment =    -4.737034
N of occupied +U levels =   42.337229
 --- exit write_ns ---

     total energy              =  -14679.29466435 Ry
     Harris-Foulkes estimate   =  -14670.05493346 Ry
     estimated scf accuracy    <      21.27068658 Ry

     total magnetization       =    -0.00 Bohr mag/cell
     absolute magnetization    =    43.44 Bohr mag/cell

     iteration #  2     ecut=    45.00 Ry     beta= 0.10
     Davidson diagonalization with overlap
     ethr =  7.19E-03,  avg # of iterations =  1.0

[...]

     total energy              =  -14693.90515810 Ry
     Harris-Foulkes estimate   =  -14693.90515802 Ry
     estimated scf accuracy    <       0.00000106 Ry

[...]

     iteration # 41     ecut=    45.00 Ry     beta= 0.10
     Davidson diagonalization with overlap
     ethr =  3.57E-10,  avg # of iterations =  1.0

     Magnetic moment per site:
     atom:    1    charge:   13.5384    magn:    4.2477    constr:    0.0000
     atom:    2    charge:   13.5392    magn:    4.2417    constr:    0.0000
     atom:    3    charge:   13.5385    magn:   -4.2464    constr:    0.0000
     atom:    4    charge:   13.5385    magn:   -4.2464    constr:    0.0000
     atom:    5    charge:   13.5386    magn:    4.2450    constr:    0.0000
     atom:    6    charge:   13.5378    magn:    4.2513    constr:    0.0000
     atom:    7    charge:   13.5385    magn:   -4.2464    constr:    0.0000
     atom:    8    charge:   13.5385    magn:   -4.2464    constr:    0.0000
     atom:    9    charge:    9.0921    magn:   -0.0089    constr:    0.0000
     atom:   10    charge:    9.0928    magn:   -0.0068    constr:    0.0000
     atom:   11    charge:    9.0927    magn:    0.0075    constr:    0.0000
     atom:   12    charge:    9.0927    magn:    0.0075    constr:    0.0000
     atom:   13    charge:    9.0925    magn:   -0.0086    constr:    0.0000
     atom:   14    charge:    9.0932    magn:   -0.0065    constr:    0.0000
     atom:   15    charge:    9.0926    magn:    0.0078    constr:    0.0000
     atom:   16    charge:    9.0926    magn:    0.0078    constr:    0.0000
     atom:   17    charge:    9.0932    magn:   -0.0065    constr:    0.0000
     atom:   18    charge:    9.0925    magn:   -0.0086    constr:    0.0000
     atom:   19    charge:    9.0927    magn:    0.0075    constr:    0.0000
     atom:   20    charge:    9.0927    magn:    0.0075    constr:    0.0000
     atom:   21    charge:    9.0921    magn:   -0.0089    constr:    0.0000
     atom:   22    charge:    9.0928    magn:   -0.0068    constr:    0.0000
     atom:   23    charge:    9.0926    magn:    0.0078    constr:    0.0000
     atom:   24    charge:    9.0926    magn:    0.0078    constr:    0.0000

     End of self-consistent calculation
 --- enter write_ns ---
 LDA+U parameters:
U(  1) =   3.1200   J(  1) =   0.7000   B(  1) =   0.0803
U(  2) =   3.1200   J(  2) =   0.7000   B(  2) =   0.0803
atom    1   Tr[ns(na)] (up, down, total) =   4.96871  0.72903  5.69775
   spin  1
    eigenvalues:
  0.984  0.993  0.994  0.997  1.001
    eigenvectors:
  0.006  0.000  0.000  0.994  0.000
  0.001  0.499  0.500  0.000  0.000
  0.001  0.499  0.500  0.000  0.000
  0.000  0.000  0.000  0.000  1.000
  0.992  0.002  0.000  0.006  0.000
    occupations:
  0.997 -0.000 -0.000 -0.000 -0.001
 -0.000  0.993 -0.001 -0.000 -0.000
 -0.000 -0.001  0.993  0.000 -0.000
 -0.000 -0.000  0.000  1.001 -0.000
 -0.001 -0.000 -0.000 -0.000  0.984
   spin  2
    eigenvalues:
  0.072  0.129  0.141  0.145  0.243
    eigenvectors:
  0.000  0.520  0.000  0.460  0.020
  0.000  0.238  0.500  0.260  0.002
  0.000  0.238  0.500  0.260  0.002
  0.999  0.000  0.001  0.000  0.000
  0.000  0.004  0.000  0.021  0.976
    occupations:
  0.139  0.006  0.006  0.000 -0.014
  0.006  0.139 -0.002 -0.001 -0.004
  0.006 -0.002  0.139  0.001 -0.004
  0.000 -0.001  0.001  0.072 -0.000
 -0.014 -0.004 -0.004 -0.000  0.240
atomic mag. moment =     4.239681
atom    2   Tr[ns(na)] (up, down, total) =   4.96787  0.73327  5.70114
   spin  1
    eigenvalues:
  0.983  0.993  0.994  0.996  1.001
    eigenvectors:
  0.004  0.000  0.000  0.996  0.000
  0.001  0.499  0.500  0.000  0.000
  0.001  0.499  0.500  0.000  0.000
  0.000  0.000  0.000  0.000  1.000
  0.994  0.002  0.000  0.004  0.000
    occupations:
  0.996 -0.000 -0.000 -0.000 -0.001
 -0.000  0.993 -0.001 -0.000 -0.000
 -0.000 -0.001  0.993  0.000 -0.000
 -0.000 -0.000  0.000  1.001 -0.000
 -0.001 -0.000 -0.000 -0.000  0.983
   spin  2
    eigenvalues:
  0.071  0.130  0.141  0.145  0.247
    eigenvectors:
  0.000  0.459  0.000  0.517  0.024
  0.000  0.269  0.500  0.229  0.002
  0.000  0.269  0.500  0.229  0.002
  0.999  0.000  0.001  0.000  0.000
  0.000  0.004  0.000  0.024  0.972
    occupations:
  0.140  0.006  0.006  0.000 -0.016
  0.006  0.139 -0.002 -0.001 -0.004
  0.006 -0.002  0.139  0.001 -0.004
  0.000 -0.001  0.001  0.071 -0.000
 -0.016 -0.004 -0.004 -0.000  0.244
atomic mag. moment =     4.234603
atom    3   Tr[ns(na)] (up, down, total) =   0.72991  4.96858  5.69850
   spin  1
    eigenvalues:
  0.072  0.128  0.142  0.144  0.244
    eigenvectors:
  0.000  0.526  0.000  0.451  0.023
  0.000  0.233  0.526  0.239  0.002
  0.000  0.237  0.473  0.287  0.002
  0.999  0.000  0.001  0.000  0.000
  0.000  0.004  0.000  0.023  0.973
    occupations:
  0.138  0.006  0.006  0.000 -0.016
  0.006  0.139 -0.002 -0.001 -0.004
  0.006 -0.002  0.139  0.001 -0.004
  0.000 -0.001  0.001  0.072  0.000
 -0.016 -0.004 -0.004  0.000  0.241
   spin  2
    eigenvalues:
  0.984  0.993  0.994  0.997  1.001
    eigenvectors:
  0.005  0.000  0.000  0.995  0.000
  0.001  0.499  0.499  0.000  0.000
  0.001  0.498  0.500  0.000  0.000
  0.000  0.000  0.000  0.000  1.000
  0.993  0.002  0.000  0.005  0.000
    occupations:
  0.997  0.000  0.000 -0.000 -0.001
  0.000  0.993 -0.001 -0.000 -0.000
  0.000 -0.001  0.993  0.000 -0.000
 -0.000 -0.000  0.000  1.001 -0.000
 -0.001 -0.000 -0.000 -0.000  0.984
atomic mag. moment =    -4.238668
atom    4   Tr[ns(na)] (up, down, total) =   0.72991  4.96858  5.69850
   spin  1
    eigenvalues:
  0.072  0.128  0.142  0.144  0.244
    eigenvectors:
  0.000  0.526  0.000  0.451  0.023
  0.000  0.237  0.473  0.287  0.002
  0.000  0.233  0.526  0.239  0.002
  0.999  0.000  0.001  0.000  0.000
  0.000  0.004  0.000  0.023  0.973
    occupations:
  0.138  0.006  0.006 -0.000 -0.016
  0.006  0.139 -0.002 -0.001 -0.004
  0.006 -0.002  0.139  0.001 -0.004
 -0.000 -0.001  0.001  0.072 -0.000
 -0.016 -0.004 -0.004 -0.000  0.241
   spin  2
    eigenvalues:
  0.984  0.993  0.994  0.997  1.001
    eigenvectors:
  0.005  0.000  0.000  0.995  0.000
  0.001  0.498  0.500  0.000  0.000
  0.001  0.499  0.499  0.000  0.000
  0.000  0.000  0.000  0.000  1.000
  0.993  0.002  0.000  0.005  0.000
    occupations:
  0.997  0.000  0.000  0.000 -0.001
  0.000  0.993 -0.001 -0.000 -0.000
  0.000 -0.001  0.993  0.000 -0.000
  0.000 -0.000  0.000  1.001  0.000
 -0.001 -0.000 -0.000  0.000  0.984
atomic mag. moment =    -4.238668
atom    5   Tr[ns(na)] (up, down, total) =   4.96845  0.73091  5.69936
   spin  1
    eigenvalues:
  0.984  0.993  0.994  0.997  1.001
    eigenvectors:
  0.005  0.001  0.000  0.994  0.000
  0.002  0.498  0.500  0.000  0.000
  0.002  0.498  0.500  0.000  0.000
  0.000  0.000  0.000  0.000  1.000
  0.992  0.003  0.000  0.005  0.000
    occupations:
  0.997  0.000  0.000 -0.000 -0.001
  0.000  0.993 -0.001 -0.000 -0.000
  0.000 -0.001  0.993  0.000 -0.000
 -0.000 -0.000  0.000  1.001 -0.000
 -0.001 -0.000 -0.000 -0.000  0.984
   spin  2
    eigenvalues:
  0.072  0.128  0.142  0.143  0.246
    eigenvectors:
  0.000  0.526  0.000  0.450  0.024
  0.001  0.235  0.499  0.263  0.002
  0.001  0.235  0.499  0.263  0.002
  0.999  0.000  0.001  0.000  0.000
  0.000  0.005  0.000  0.024  0.971
    occupations:
  0.138  0.006  0.006  0.000 -0.016
  0.006  0.139 -0.003 -0.002 -0.004
  0.006 -0.003  0.139  0.002 -0.004
  0.000 -0.002  0.002  0.072 -0.000
 -0.016 -0.004 -0.004 -0.000  0.243
atomic mag. moment =     4.237538
atom    6   Tr[ns(na)] (up, down, total) =   4.96928  0.72639  5.69566
   spin  1
    eigenvalues:
  0.984  0.993  0.994  0.997  1.001
    eigenvectors:
  0.006  0.002  0.000  0.992  0.000
  0.001  0.498  0.500  0.001  0.000
  0.001  0.498  0.500  0.001  0.000
  0.000  0.000  0.000  0.000  1.000
  0.991  0.002  0.000  0.007  0.000
    occupations:
  0.997  0.000  0.000 -0.000 -0.001
  0.000  0.994 -0.001 -0.000 -0.000
  0.000 -0.001  0.994  0.000 -0.000
 -0.000 -0.000  0.000  1.001 -0.000
 -0.001 -0.000 -0.000 -0.000  0.984
   spin  2
    eigenvalues:
  0.072  0.127  0.143  0.143  0.242
    eigenvectors:
  0.000  0.597  0.000  0.382  0.021
  0.001  0.199  0.499  0.299  0.002
  0.001  0.199  0.499  0.299  0.002
  0.999  0.000  0.001  0.000  0.000
  0.000  0.005  0.000  0.021  0.974
    occupations:
  0.136  0.006  0.006  0.000 -0.015
  0.006  0.140 -0.003 -0.002 -0.004
  0.006 -0.003  0.140  0.002 -0.004
  0.000 -0.002  0.002  0.072 -0.000
 -0.015 -0.004 -0.004 -0.000  0.239
atomic mag. moment =     4.242889
atom    7   Tr[ns(na)] (up, down, total) =   0.72991  4.96858  5.69850
   spin  1
    eigenvalues:
  0.072  0.128  0.142  0.144  0.244
    eigenvectors:
  0.000  0.526  0.000  0.451  0.023
  0.000  0.237  0.473  0.287  0.002
  0.000  0.233  0.526  0.239  0.002
  0.999  0.000  0.001  0.000  0.000
  0.000  0.004  0.000  0.023  0.973
    occupations:
  0.138  0.006  0.006 -0.000 -0.016
  0.006  0.139 -0.002 -0.001 -0.004
  0.006 -0.002  0.139  0.001 -0.004
 -0.000 -0.001  0.001  0.072 -0.000
 -0.016 -0.004 -0.004 -0.000  0.241
   spin  2
    eigenvalues:
  0.984  0.993  0.994  0.997  1.001
    eigenvectors:
  0.005  0.000  0.000  0.995  0.000
  0.001  0.498  0.500  0.000  0.000
  0.001  0.499  0.499  0.000  0.000
  0.000  0.000  0.000  0.000  1.000
  0.993  0.002  0.000  0.005  0.000
    occupations:
  0.997  0.000  0.000  0.000 -0.001
  0.000  0.993 -0.001 -0.000 -0.000
  0.000 -0.001  0.993  0.000 -0.000
  0.000 -0.000  0.000  1.001  0.000
 -0.001 -0.000 -0.000  0.000  0.984
atomic mag. moment =    -4.238668
atom    8   Tr[ns(na)] (up, down, total) =   0.72991  4.96858  5.69850
   spin  1
    eigenvalues:
  0.072  0.128  0.142  0.144  0.244
    eigenvectors:
  0.000  0.526  0.000  0.451  0.023
  0.000  0.233  0.526  0.239  0.002
  0.000  0.237  0.473  0.287  0.002
  0.999  0.000  0.001  0.000  0.000
  0.000  0.004  0.000  0.023  0.973
    occupations:
  0.138  0.006  0.006  0.000 -0.016
  0.006  0.139 -0.002 -0.001 -0.004
  0.006 -0.002  0.139  0.001 -0.004
  0.000 -0.001  0.001  0.072  0.000
 -0.016 -0.004 -0.004  0.000  0.241
   spin  2
    eigenvalues:
  0.984  0.993  0.994  0.997  1.001
    eigenvectors:
  0.005  0.000  0.000  0.995  0.000
  0.001  0.499  0.499  0.000  0.000
  0.001  0.498  0.500  0.000  0.000
  0.000  0.000  0.000  0.000  1.000
  0.993  0.002  0.000  0.005  0.000
    occupations:
  0.997  0.000  0.000 -0.000 -0.001
  0.000  0.993 -0.001 -0.000 -0.000
  0.000 -0.001  0.993  0.000 -0.000
 -0.000 -0.000  0.000  1.001 -0.000
 -0.001 -0.000 -0.000 -0.000  0.984
atomic mag. moment =    -4.238668
N of occupied +U levels =   45.587882
 --- exit write_ns ---

 ------ SPIN UP ------------

          k = 0.0000 0.0000 0.0000 ( 13629 PWs)   bands (ev):

   -66.4371 -66.4318 -66.4269 -66.4245 -61.8483 -61.8468 -61.8462 -61.8462
   -35.2063 -35.1999 -35.1974 -35.1943 -35.1830 -35.1779 -35.1738 -35.1716
   -35.1466 -35.1420 -35.1349 -35.1327 -30.6797 -30.6796 -30.6795 -30.6793
   -30.6735 -30.6734 -30.6734 -30.6732 -30.6662 -30.6661 -30.6660 -30.6658
     5.9691   7.4665   7.8024   8.0194   8.2886   8.3919   8.5054   8.5633
     8.7073   8.7112   8.9114   9.3044   9.3908   9.4175   9.4506   9.4701
     9.4756   9.5363   9.5730   9.5940   9.6047   9.6787   9.6961   9.7473
     9.8021   9.8531   9.8608   9.8915   9.8943   9.9059   9.9449   9.9582
     9.9976  10.0126  10.0419  10.0671  10.1599  10.2371  10.2470  10.2748
    10.2765  10.3129  10.3494  10.3540  10.3546  10.3600  10.3939  10.4155
    10.4539  10.4945  10.5033  10.5492  10.5944  10.6222  10.7475  10.7797
    10.8063  10.8266  10.8467  11.0834  11.1360  11.1467  11.1753  11.2136
    11.2495  11.3064  11.3380  11.3415  11.3665  11.4870  11.5151  11.6755
    11.7772  11.8149  11.8274  11.8332  11.8522  11.8567  11.9138  11.9511
    12.0751  12.0977  12.1836  12.2512  12.2725  12.2941  12.3141  12.3503
    12.3684  12.4541  12.4645  12.5213  12.5334  12.6279  12.6834  12.7072
    12.7082  12.7091  12.7412  12.7783  12.8176  12.8422  12.9726  13.0716
    13.0925  13.2782  13.2884  13.3550  13.3981  14.1491  14.2094  14.9816
    15.2053  15.2609  15.6115  15.9230  15.9836  15.9934  16.5756  16.6115
    16.7962  17.0962  17.1374  17.1594  17.1654  17.3753  17.4144  17.5481
    17.5645  17.5694  17.5985  17.8397  17.8505  17.9899  18.1286  18.1747
    18.5927  18.8744  19.0239  19.0655  19.1739  19.3287  19.4979  19.6674
    19.7705  19.9039

[...]

          k =-0.1768-0.1768-0.1360 ( 13673 PWs)   bands (ev):

[...]

 ------ SPIN DOWN ----------

[...]

          k =-0.5303 0.1768 0.4081 ( 13670 PWs)   bands (ev):

[...]

          k = 0.0000 0.7071 1.3603 ( 13696 PWs)   bands (ev):

   -66.4299 -66.4299 -66.4299 -66.4299 -61.8494 -61.8482 -61.8462 -61.8444
   -35.1994 -35.1994 -35.1994 -35.1994 -35.1765 -35.1765 -35.1765 -35.1765
   -35.1389 -35.1389 -35.1389 -35.1389 -30.6829 -30.6802 -30.6779 -30.6776
   -30.6758 -30.6748 -30.6731 -30.6709 -30.6679 -30.6675 -30.6658 -30.6630
     7.9182   7.9186   7.9189   7.9192   8.7223   8.7223   8.7232   8.7232
     8.7460   8.7460   8.7462   8.7463   9.1016   9.1018   9.1027   9.1029
     9.2288   9.2289   9.2303   9.2304   9.4044   9.4046   9.4048   9.4050
     9.4834   9.4837   9.4837   9.4842   9.6184   9.6187   9.6190   9.6194
     9.8694   9.8696   9.8706   9.8708  10.2005  10.2007  10.2007  10.2008
    10.2217  10.2225  10.2231  10.2238  10.6769  10.6771  10.6771  10.6772
    10.8428  10.8429  10.8434  10.8434  11.0415  11.0415  11.0416  11.0416
    11.1722  11.1725  11.1730  11.1733  11.4178  11.4178  11.4178  11.4180
    11.6619  11.6620  11.6620  11.6621  11.7408  11.7410  11.7412  11.7412
    11.9483  11.9484  11.9484  11.9485  12.0409  12.0410  12.0411  12.0411
    12.0941  12.0945  12.0946  12.0950  12.2835  12.2836  12.2838  12.2838
    12.3371  12.3372  12.3381  12.3382  12.4682  12.4684  12.4684  12.4686
    12.6583  12.6583  12.6591  12.6592  12.7573  12.7578  12.7583  12.7589
    13.2760  13.2761  13.2768  13.2770  13.6437  13.6440  13.6441  13.6444
    14.6796  14.6804  14.6810  14.6816  15.8346  15.8372  15.8379  15.8397
    16.5487  16.5494  16.5501  16.5503  17.4064  17.4085  17.4101  17.4101
    17.5382  17.5399  17.5417  17.5422  17.7447  17.7472  17.7524  17.7535
    18.0910  18.0940  18.0969  18.0985  18.3519  18.3550  18.3561  18.3577
    20.7605  20.7609

     the Fermi energy is    15.6140 ev

!    total energy              =  -14693.90515737 Ry
     Harris-Foulkes estimate   =  -14693.90515737 Ry
     estimated scf accuracy    <       0.00000099 Ry

     total all-electron energy =   -626921.500879 Ry

     The total energy is the sum of the following terms:

     one-electron contribution =    -698.42187773 Ry
     hartree contribution      =     651.66136972 Ry
     xc contribution           =    -738.15184892 Ry
     ewald contribution        =   -2207.56121140 Ry
     Hubbard energy            =       0.45154195 Ry
     one-center paw contrib.   =  -11701.88313098 Ry

     total magnetization       =     0.00 Bohr mag/cell
     absolute magnetization    =    36.55 Bohr mag/cell

     convergence has been achieved in  41 iterations

     Writing output data file mnau2.save/

     General routines

     Parallel routines

     Hubbard U routines

   This run was terminated on:  12:30:46  26Mar2019

   JOB DONE.