     Program PWSCF v.6.3MaX starts on 26Mar2019 at 12:25:34

     R & G space division:  proc/nbgrp/npool/nimage =      16
     Waiting for input...
     Reading input from standard input

     Current dimensions of program PWSCF are:
     Max number of different atomic species (ntypx) = 10
     Max number of k-points (npk) =  40000
     Max angular momentum in pseudopotentials (lmaxx) =  3
     Message from routine read_upf::
     Pseudo file ./pseudo/Mn.pbe-spn-kjpaw_psl.0.3.1.UPF has been successfully fixed on the fly.
To avoid this message in the future you can permanently fix
 your pseudo files following instructions given in:
               file Mn.pbe-spn-kjpaw_psl.0.3.1.UPF: wavefunction(s)  3P 3D renormalized
     Message from routine read_upf::
     Pseudo file ./pseudo/Mn.pbe-spn-kjpaw_psl.0.3.1.UPF has been successfully fixed on the fly.
To avoid this message in the future you can permanently fix
 your pseudo files following instructions given in:
               file Mn.pbe-spn-kjpaw_psl.0.3.1.UPF: wavefunction(s)  3P 3D renormalized
     Message from routine read_upf::
     Pseudo file ./pseudo/Au.pbe-dn-kjpaw_psl.0.1.UPF has been successfully fixed on the fly.
To avoid this message in the future you can permanently fix
 your pseudo files following instructions given in:
               file Au.pbe-dn-kjpaw_psl.0.1.UPF: wavefunction(s)  6S 6P 5D renormalized

     bravais-lattice index     =            0
     lattice parameter (alat)  =      18.0125  a.u.
     unit-cell volume          =    2685.0513 (a.u.)^3
     number of atoms/cell      =           24
     number of atomic types    =            3
     number of electrons       =       296.00
     number of Kohn-Sham states=          178
     kinetic-energy cutoff     =      45.0000  Ry
     charge density cutoff     =     400.0000  Ry
     convergence threshold     =      1.0E-06
     mixing beta               =       0.1000
     number of iterations used =            8  plain     mixing
     Exchange-correlation      = SLA PW PBX PBC ( 1  4  3  4 0 0)

     celldm(1)=  18.012490  celldm(2)=   0.000000  celldm(3)=   0.000000
     celldm(4)=   0.000000  celldm(5)=   0.000000  celldm(6)=   0.000000

     crystal axes: (cart. coord. in units of alat)
               a(1) = (   0.707107  -0.707107   0.000000 )
               a(2) = (  -0.707107  -0.707107   0.000000 )
               a(3) = (   0.176777   0.176777  -0.459443 )

     reciprocal axes: (cart. coord. in units 2 pi/alat)
               b(1) = (  0.707107 -0.707107  0.000000 )
               b(2) = ( -0.707107 -0.707107 -0.544138 )
               b(3) = (  0.000000  0.000000 -2.176550 )

     PseudoPot. # 1 for Mn read from file:
     ./pseudo/Mn.pbe-spn-kjpaw_psl.0.3.1.UPF
     MD5 check sum: 7eef95dd2aae66803482eea66ebeebf1
     Pseudo is Projector augmented-wave + core cor, Zval = 15.0
     Generated using "atomic" code by A. Dal Corso v.5.0.99 svn rev. 10869
     Shape of augmentation charge: PSQ
     Using radial grid of 1187 points,  6 beta functions with:
                l(1) =   0
                l(2) =   0
                l(3) =   1
                l(4) =   1
                l(5) =   2
                l(6) =   2
     Q(r) pseudized with 0 coefficients

     PseudoPot. # 2 for Mn read from file:
     ./pseudo/Mn.pbe-spn-kjpaw_psl.0.3.1.UPF
     MD5 check sum: 7eef95dd2aae66803482eea66ebeebf1
     Pseudo is Projector augmented-wave + core cor, Zval = 15.0
     Generated using "atomic" code by A. Dal Corso v.5.0.99 svn rev. 10869
     Shape of augmentation charge: PSQ
     Using radial grid of 1187 points,  6 beta functions with:
                l(1) =   0
                l(2) =   0
                l(3) =   1
                l(4) =   1
                l(5) =   2
                l(6) =   2
     Q(r) pseudized with 0 coefficients

     PseudoPot. # 3 for Au read from file:
     ./pseudo/Au.pbe-dn-kjpaw_psl.0.1.UPF
     MD5 check sum: 5c9b92683623e7ae2ab3f8e525febab6
     Pseudo is Projector augmented-wave + core cor, Zval = 11.0
     Generated using "atomic" code by A. Dal Corso v.5.0.2 svn rev. 9415
     Shape of augmentation charge: PSQ
     Using radial grid of 1279 points,  6 beta functions with:
                l(1) =   0
                l(2) =   0
                l(3) =   1
                l(4) =   1
                l(5) =   2
                l(6) =   2
     Q(r) pseudized with 0 coefficients

     atomic species   valence    mass     pseudopotential
        Mn1           15.00    54.93800     Mn( 1.00)
        Mn2           15.00    54.93800     Mn( 1.00)
        Au            11.00   196.96600     Au( 1.00)

     Starting magnetic structure
     atomic species   magnetization
        Mn1          1.000
        Mn2         -1.000
        Au           0.000

     Full LDA+U calculation (l_max = 2) with parameters (eV):
     U(  1) =   3.1200   J(  1) =   0.7000   B(  1) =   0.0803
     U(  2) =   3.1200   J(  2) =   0.7000   B(  2) =   0.0803

      4 Sym. Ops., with inversion, found

   Cartesian axes

     site n.     atom                  positions (alat units)
         1           Mn1 tau(   1) = (   0.3535534  -0.3535534   0.0000000  )
         2           Mn2 tau(   2) = (   0.0000000   0.0000000   0.0000000  )
         3           Mn1 tau(   3) = (   0.0000000  -0.3535534   0.0000000  )
         4           Mn1 tau(   4) = (   0.3535534  -0.7071068   0.0000000  )
         5           Mn1 tau(   5) = (  -0.3535534  -0.3535534   0.0000000  )
         6           Mn1 tau(   6) = (   0.0000000  -0.7071068   0.0000000  )
         7           Mn1 tau(   7) = (  -0.3535534  -0.7071068   0.0000000  )
         8           Mn1 tau(   8) = (   0.0000000  -1.0606602   0.0000000  )
         9           Au  tau(   9) = (  -0.1767767  -0.1767767  -0.1470216  )
        10           Au  tau(  10) = (   0.1767767  -0.5303301  -0.1470216  )
        11           Au  tau(  11) = (  -0.1767767  -0.5303301  -0.1470216  )
        12           Au  tau(  12) = (   0.1767767  -0.8838835  -0.1470216  )
        13           Au  tau(  13) = (  -0.5303301  -0.5303301  -0.1470216  )
        14           Au  tau(  14) = (  -0.1767767  -0.8838835  -0.1470216  )
        15           Au  tau(  15) = (   0.5303301  -0.5303301  -0.1470216  )
        16           Au  tau(  16) = (   0.1767767  -0.1767767  -0.1470216  )
        17           Au  tau(  17) = (   0.3535534  -0.3535534  -0.3124210  )
        18           Au  tau(  18) = (   0.0000000   0.0000000  -0.3124210  )
        19           Au  tau(  19) = (   0.0000000  -0.3535534  -0.3124210  )
        20           Au  tau(  20) = (   0.3535534  -0.7071068  -0.3124210  )
        21           Au  tau(  21) = (  -0.3535534  -0.3535534  -0.3124210  )
        22           Au  tau(  22) = (  -0.0000000  -0.7071068  -0.3124210  )
        23           Au  tau(  23) = (  -0.3535534  -0.7071068  -0.3124210  )
        24           Au  tau(  24) = (   0.0000000  -1.0606602  -0.3124210  )

     number of k points=    30 (tetrahedron method)
                       cart. coord. in units 2pi/alat
        k(    1) = (   0.0000000   0.0000000   0.0000000), wk =   0.0156250
        k(    2) = (   0.0000000   0.0000000  -0.5441376), wk =   0.0312500
        k(    3) = (   0.0000000   0.0000000   1.0882752), wk =   0.0156250
        k(    4) = (  -0.1767767  -0.1767767  -0.1360344), wk =   0.0312500
        k(    5) = (  -0.1767767  -0.1767767  -0.6801720), wk =   0.0312500
        k(    6) = (  -0.1767767  -0.1767767   0.9522408), wk =   0.0312500
        k(    7) = (  -0.1767767  -0.1767767   0.4081032), wk =   0.0312500
        k(    8) = (   0.3535534   0.3535534   0.2720688), wk =   0.0156250
        k(    9) = (   0.3535534   0.3535534  -0.2720688), wk =   0.0312500
        k(   10) = (   0.3535534   0.3535534   1.3603439), wk =   0.0156250
        k(   11) = (   0.1767767  -0.1767767   0.0000000), wk =   0.0312500
        k(   12) = (   0.1767767  -0.1767767  -0.5441376), wk =   0.0625000
        k(   13) = (   0.1767767  -0.1767767   1.0882752), wk =   0.0312500
        k(   14) = (   0.0000000  -0.3535534  -0.1360344), wk =   0.0625000
        k(   15) = (   0.0000000  -0.3535534  -0.6801720), wk =   0.0625000
        k(   16) = (   0.0000000  -0.3535534   0.9522408), wk =   0.0625000
        k(   17) = (   0.0000000  -0.3535534   0.4081032), wk =   0.0625000
        k(   18) = (   0.5303301   0.1767767   0.2720688), wk =   0.0312500
        k(   19) = (   0.5303301   0.1767767  -0.2720688), wk =   0.0625000
        k(   20) = (   0.5303301   0.1767767   1.3603439), wk =   0.0312500
        k(   21) = (  -0.3535534   0.3535534   0.0000000), wk =   0.0156250
        k(   22) = (  -0.3535534   0.3535534  -0.5441376), wk =   0.0312500
        k(   23) = (  -0.3535534   0.3535534   1.0882752), wk =   0.0156250
        k(   24) = (  -0.5303301   0.1767767  -0.1360344), wk =   0.0312500
        k(   25) = (  -0.5303301   0.1767767  -0.6801720), wk =   0.0312500
        k(   26) = (  -0.5303301   0.1767767   0.9522408), wk =   0.0312500
        k(   27) = (  -0.5303301   0.1767767   0.4081032), wk =   0.0312500
        k(   28) = (   0.0000000   0.7071068   0.2720688), wk =   0.0156250
        k(   29) = (   0.0000000   0.7071068  -0.2720688), wk =   0.0312500
        k(   30) = (   0.0000000   0.7071068   1.3603439), wk =   0.0156250

     Check: negative/imaginary core charge=   -0.000006    0.000000

     Initial potential from superposition of free atoms

     starting charge  295.99426, renormalised to  296.00000
     Number of +U iterations with fixed ns =  0
     Starting occupations:
 --- enter write_ns ---
 LDA+U parameters:
U(  1) =   3.1200   J(  1) =   0.7000   B(  1) =   0.0803
U(  2) =   3.1200   J(  2) =   0.7000   B(  2) =   0.0803
atom    1   Tr[ns(na)] (up, down, total) =   5.00000  0.00000  5.00000
   spin  1
    eigenvalues:
  1.000  1.000  1.000  1.000  1.000
    eigenvectors:
  1.000  0.000  0.000  0.000  0.000
  0.000  1.000  0.000  0.000  0.000
  0.000  0.000  1.000  0.000  0.000
  0.000  0.000  0.000  1.000  0.000
  0.000  0.000  0.000  0.000  1.000
    occupations:
  1.000  0.000  0.000  0.000  0.000
  0.000  1.000  0.000  0.000  0.000
  0.000  0.000  1.000  0.000  0.000
  0.000  0.000  0.000  1.000  0.000
  0.000  0.000  0.000  0.000  1.000
   spin  2
    eigenvalues:
  0.000  0.000  0.000  0.000  0.000
    eigenvectors:
  1.000  0.000  0.000  0.000  0.000
  0.000  1.000  0.000  0.000  0.000
  0.000  0.000  1.000  0.000  0.000
  0.000  0.000  0.000  1.000  0.000
  0.000  0.000  0.000  0.000  1.000
    occupations:
  0.000  0.000  0.000  0.000  0.000
  0.000  0.000  0.000  0.000  0.000
  0.000  0.000  0.000  0.000  0.000
  0.000  0.000  0.000  0.000  0.000
  0.000  0.000  0.000  0.000  0.000
atomic mag. moment =     5.000000
atom    2   Tr[ns(na)] (up, down, total) =   0.00000  5.00000  5.00000
   spin  1
    eigenvalues:
  0.000  0.000  0.000  0.000  0.000
    eigenvectors:
  1.000  0.000  0.000  0.000  0.000
  0.000  1.000  0.000  0.000  0.000
  0.000  0.000  1.000  0.000  0.000
  0.000  0.000  0.000  1.000  0.000
  0.000  0.000  0.000  0.000  1.000
    occupations:
  0.000  0.000  0.000  0.000  0.000
[...]
  0.000  0.000  0.000  0.002  0.998
  1.000  0.000  0.000  0.000  0.000
    occupations:
  1.003 -0.000  0.000 -0.000  0.000
 -0.000  1.003  0.000 -0.000 -0.000
  0.000  0.000  1.003  0.000 -0.000
 -0.000 -0.000  0.000  1.004  0.000
  0.000 -0.000 -0.000  0.000  1.003
   spin  2
    eigenvalues:
  0.040  0.050  0.054  0.055  0.073
    eigenvectors:
  0.012  0.937  0.019  0.032  0.000
  0.000  0.004  0.848  0.148  0.001
  0.000  0.048  0.132  0.820  0.000
  0.988  0.012  0.000  0.000  0.000
  0.000  0.000  0.001  0.000  0.999
    occupations:
  0.050 -0.000  0.001  0.001 -0.000
 -0.000  0.054  0.000 -0.000  0.001
  0.001  0.000  0.055  0.000  0.000
  0.001 -0.000  0.000  0.040 -0.000
 -0.000  0.001  0.000 -0.000  0.073
atomic mag. moment =     4.742401
N of occupied +U levels =   42.300037
 --- exit write_ns ---

     total energy              =  -14679.13944995 Ry
     Harris-Foulkes estimate   =  -14669.73603109 Ry
     estimated scf accuracy    <      21.26829505 Ry

     total magnetization       =    31.40 Bohr mag/cell
     absolute magnetization    =    43.57 Bohr mag/cell

     iteration #  2     ecut=    45.00 Ry     beta= 0.10
     Davidson diagonalization with overlap
     ethr =  7.19E-03,  avg # of iterations =  1.0

[...]

     iteration # 10     ecut=    45.00 Ry     beta= 0.10
     Davidson diagonalization with overlap
     c_bands:  1 eigenvalues not converged
     ethr =  4.75E-06,  avg # of iterations =  3.0

[...]

     total energy              =  -14693.96550991 Ry
     Harris-Foulkes estimate   =  -14693.96550620 Ry
     estimated scf accuracy    <       0.00000268 Ry

[...]

     iteration # 20     ecut=    45.00 Ry     beta= 0.10
     Davidson diagonalization with overlap
     ethr =  9.07E-10,  avg # of iterations =  2.2

     Magnetic moment per site:
     atom:    1    charge:   13.5460    magn:    4.1787    constr:    0.0000
     atom:    2    charge:   13.5281    magn:   -4.3006    constr:    0.0000
     atom:    3    charge:   13.5460    magn:    4.1870    constr:    0.0000
     atom:    4    charge:   13.5460    magn:    4.1870    constr:    0.0000
     atom:    5    charge:   13.5460    magn:    4.1845    constr:    0.0000
     atom:    6    charge:   13.5478    magn:    4.1706    constr:    0.0000
     atom:    7    charge:   13.5460    magn:    4.1870    constr:    0.0000
     atom:    8    charge:   13.5460    magn:    4.1870    constr:    0.0000
     atom:    9    charge:    9.0908    magn:    0.0175    constr:    0.0000
     atom:   10    charge:    9.0879    magn:    0.0359    constr:    0.0000
     atom:   11    charge:    9.0881    magn:    0.0318    constr:    0.0000
     atom:   12    charge:    9.0881    magn:    0.0318    constr:    0.0000
     atom:   13    charge:    9.0898    magn:   -0.0017    constr:    0.0000
     atom:   14    charge:    9.0907    magn:    0.0415    constr:    0.0000
     atom:   15    charge:    9.0891    magn:    0.0083    constr:    0.0000
     atom:   16    charge:    9.0891    magn:    0.0083    constr:    0.0000
     atom:   17    charge:    9.0907    magn:    0.0415    constr:    0.0000
     atom:   18    charge:    9.0898    magn:   -0.0017    constr:    0.0000
     atom:   19    charge:    9.0881    magn:    0.0318    constr:    0.0000
     atom:   20    charge:    9.0881    magn:    0.0318    constr:    0.0000
     atom:   21    charge:    9.0908    magn:    0.0175    constr:    0.0000
     atom:   22    charge:    9.0879    magn:    0.0359    constr:    0.0000
     atom:   23    charge:    9.0891    magn:    0.0083    constr:    0.0000
     atom:   24    charge:    9.0891    magn:    0.0083    constr:    0.0000

     End of self-consistent calculation
 --- enter write_ns ---
 LDA+U parameters:
U(  1) =   3.1200   J(  1) =   0.7000   B(  1) =   0.0803
U(  2) =   3.1200   J(  2) =   0.7000   B(  2) =   0.0803
atom    1   Tr[ns(na)] (up, down, total) =   4.96551  0.78111  5.74662
   spin  1
    eigenvalues:
  0.983  0.991  0.993  0.997  1.002
    eigenvectors:
  0.000  0.000  0.009  0.991  0.000
  0.000  0.500  0.495  0.005  0.000
  0.000  0.500  0.495  0.005  0.000
  0.000  0.001  0.000  0.000  0.999
  1.000  0.000  0.000  0.000  0.000
    occupations:
  0.997  0.000  0.000 -0.000 -0.000
  0.000  0.992  0.001 -0.000 -0.000
  0.000  0.001  0.992  0.000 -0.000
 -0.000 -0.000  0.000  1.002 -0.000
 -0.000 -0.000 -0.000 -0.000  0.983
   spin  2
    eigenvalues:
  0.066  0.143  0.147  0.160  0.264
    eigenvectors:
  0.000  0.987  0.000  0.012  0.000
  0.001  0.006  0.499  0.489  0.005
  0.001  0.006  0.499  0.489  0.005
  0.999  0.000  0.001  0.000  0.000
  0.000  0.001  0.000  0.010  0.989
    occupations:
  0.144  0.001  0.001 -0.000 -0.002
  0.001  0.154  0.007 -0.002  0.008
  0.001  0.007  0.154  0.002  0.008
 -0.000 -0.002  0.002  0.067 -0.000
 -0.002  0.008  0.008 -0.000  0.263
atomic mag. moment =     4.184403
atom    2   Tr[ns(na)] (up, down, total) =   0.68993  4.97420  5.66413
   spin  1
    eigenvalues:
  0.073  0.119  0.140  0.145  0.213
    eigenvectors:
  0.000  0.981  0.019  0.000  0.000
  0.001  0.009  0.440  0.499  0.051
  0.001  0.009  0.440  0.499  0.051
  0.997  0.000  0.000  0.003  0.000
  0.000  0.001  0.101  0.000  0.898
    occupations:
  0.120  0.002  0.002 -0.000  0.001
  0.002  0.146  0.001 -0.003  0.016
  0.002  0.001  0.146  0.003  0.016
 -0.000 -0.003  0.003  0.073 -0.000
  0.001  0.016  0.016 -0.000  0.206
   spin  2
    eigenvalues:
  0.987  0.994  0.994  0.998  1.002
    eigenvectors:
  0.002  0.077  0.000  0.922  0.000
  0.000  0.461  0.500  0.039  0.000
  0.000  0.461  0.500  0.039  0.000
  0.000  0.000  0.000  0.000  1.000
  0.997  0.002  0.000  0.001  0.000
    occupations:
  0.998 -0.001 -0.001 -0.000 -0.000
 -0.001  0.994  0.000 -0.000 -0.000
 -0.001  0.000  0.994  0.000 -0.000
 -0.000 -0.000  0.000  1.002 -0.000
 -0.000 -0.000 -0.000 -0.000  0.987
atomic mag. moment =    -4.284271
atom    3   Tr[ns(na)] (up, down, total) =   4.96609  0.77611  5.74221
   spin  1
    eigenvalues:
  0.983  0.993  0.993  0.996  1.002
    eigenvectors:
  0.000  0.001  0.004  0.993  0.002
  0.000  0.629  0.366  0.004  0.000
  0.002  0.368  0.628  0.001  0.000
  0.000  0.001  0.000  0.002  0.997
  0.998  0.000  0.002  0.000  0.000
    occupations:
  0.996  0.000 -0.000 -0.000 -0.000
  0.000  0.993 -0.000  0.000  0.000
 -0.000 -0.000  0.993  0.000 -0.000
 -0.000  0.000  0.000  1.002 -0.000
 -0.000  0.000 -0.000 -0.000  0.983
   spin  2
    eigenvalues:
  0.067  0.141  0.149  0.156  0.263
    eigenvectors:
  0.000  0.959  0.006  0.028  0.007
  0.000  0.029  0.004  0.966  0.001
  0.000  0.005  0.987  0.006  0.001
  1.000  0.000  0.000  0.000  0.000
  0.000  0.007  0.002  0.000  0.990
    occupations:
  0.142  0.002  0.001 -0.000 -0.010
  0.002  0.155 -0.001  0.001  0.004
  0.001 -0.001  0.149  0.001 -0.004
 -0.000  0.001  0.001  0.067  0.000
 -0.010  0.004 -0.004  0.000  0.262
atomic mag. moment =     4.189981
atom    4   Tr[ns(na)] (up, down, total) =   4.96609  0.77611  5.74221
   spin  1
    eigenvalues:
  0.983  0.993  0.993  0.996  1.002
    eigenvectors:
  0.000  0.001  0.004  0.993  0.002
  0.002  0.368  0.628  0.001  0.000
  0.000  0.629  0.366  0.004  0.000
  0.000  0.001  0.000  0.002  0.997
  0.998  0.000  0.002  0.000  0.000
    occupations:
  0.996 -0.000  0.000  0.000 -0.000
 -0.000  0.993 -0.000 -0.000 -0.000
  0.000 -0.000  0.993 -0.000  0.000
  0.000 -0.000 -0.000  1.002  0.000
 -0.000 -0.000  0.000  0.000  0.983
   spin  2
    eigenvalues:
  0.067  0.141  0.149  0.156  0.263
    eigenvectors:
  0.000  0.959  0.006  0.028  0.007
  0.000  0.005  0.987  0.006  0.001
  0.000  0.029  0.004  0.966  0.001
  1.000  0.000  0.000  0.000  0.000
  0.000  0.007  0.002  0.000  0.990
    occupations:
  0.142  0.001  0.002  0.000 -0.010
  0.001  0.149 -0.001 -0.001 -0.004
  0.002 -0.001  0.155 -0.001  0.004
  0.000 -0.001 -0.001  0.067 -0.000
 -0.010 -0.004  0.004 -0.000  0.262
atomic mag. moment =     4.189981
atom    5   Tr[ns(na)] (up, down, total) =   4.96650  0.77791  5.74441
   spin  1
    eigenvalues:
  0.983  0.992  0.993  0.996  1.002
    eigenvectors:
  0.001  0.022  0.000  0.977  0.000
  0.003  0.486  0.500  0.011  0.000
  0.003  0.486  0.500  0.011  0.000
  0.000  0.000  0.001  0.000  0.999
  0.994  0.006  0.000  0.001  0.000
    occupations:
  0.996 -0.001 -0.001 -0.000  0.000
 -0.001  0.992 -0.001 -0.000  0.000
 -0.001 -0.001  0.992  0.000  0.000
 -0.000 -0.000  0.000  1.002 -0.000
  0.000  0.000  0.000 -0.000  0.983
   spin  2
    eigenvalues:
  0.066  0.124  0.156  0.162  0.270
    eigenvectors:
  0.000  0.947  0.052  0.000  0.001
  0.000  0.025  0.471  0.500  0.003
  0.000  0.025  0.471  0.500  0.003
  1.000  0.000  0.000  0.000  0.000
  0.000  0.002  0.005  0.000  0.992
    occupations:
  0.125 -0.005 -0.005 -0.000  0.005
 -0.005  0.159 -0.004 -0.000  0.007
 -0.005 -0.004  0.159  0.000  0.007
 -0.000 -0.000  0.000  0.066 -0.000
  0.005  0.007  0.007 -0.000  0.269
atomic mag. moment =     4.188582
atom    6   Tr[ns(na)] (up, down, total) =   4.96532  0.79148  5.75680
   spin  1
    eigenvalues:
  0.983  0.992  0.993  0.996  1.002
    eigenvectors:
  0.001  0.000  0.007  0.992  0.000
  0.004  0.499  0.493  0.004  0.001
  0.004  0.499  0.493  0.004  0.001
  0.000  0.001  0.000  0.000  0.999
  0.992  0.000  0.008  0.000  0.000
    occupations:
  0.996  0.000  0.000 -0.000  0.000
  0.000  0.992  0.000  0.000 -0.001
  0.000  0.000  0.992 -0.000 -0.001
 -0.000  0.000 -0.000  1.002 -0.000
  0.000 -0.001 -0.001 -0.000  0.983
   spin  2
    eigenvalues:
  0.066  0.148  0.153  0.159  0.265
    eigenvectors:
  0.000  0.978  0.000  0.022  0.000
  0.000  0.011  0.500  0.489  0.000
  0.000  0.011  0.500  0.489  0.000
  1.000  0.000  0.000  0.000  0.000
  0.000  0.000  0.000  0.000  1.000
    occupations:
  0.148 -0.001 -0.001 -0.000 -0.001
 -0.001  0.156  0.003  0.001  0.001
 -0.001  0.003  0.156 -0.001  0.001
 -0.000  0.001 -0.001  0.066 -0.000
 -0.001  0.001  0.001 -0.000  0.265
atomic mag. moment =     4.173838
atom    7   Tr[ns(na)] (up, down, total) =   4.96609  0.77611  5.74221
   spin  1
    eigenvalues:
  0.983  0.993  0.993  0.996  1.002
    eigenvectors:
  0.000  0.001  0.004  0.993  0.002
  0.002  0.368  0.628  0.001  0.000
  0.000  0.629  0.366  0.004  0.000
  0.000  0.001  0.000  0.002  0.997
  0.998  0.000  0.002  0.000  0.000
    occupations:
  0.996 -0.000  0.000  0.000 -0.000
 -0.000  0.993 -0.000 -0.000 -0.000
  0.000 -0.000  0.993 -0.000  0.000
  0.000 -0.000 -0.000  1.002  0.000
 -0.000 -0.000  0.000  0.000  0.983
   spin  2
    eigenvalues:
  0.067  0.141  0.149  0.156  0.263
    eigenvectors:
  0.000  0.959  0.006  0.028  0.007
  0.000  0.005  0.987  0.006  0.001
  0.000  0.029  0.004  0.966  0.001
  1.000  0.000  0.000  0.000  0.000
  0.000  0.007  0.002  0.000  0.990
    occupations:
  0.142  0.001  0.002  0.000 -0.010
  0.001  0.149 -0.001 -0.001 -0.004
  0.002 -0.001  0.155 -0.001  0.004
  0.000 -0.001 -0.001  0.067 -0.000
 -0.010 -0.004  0.004 -0.000  0.262
atomic mag. moment =     4.189981
atom    8   Tr[ns(na)] (up, down, total) =   4.96609  0.77611  5.74221
   spin  1
    eigenvalues:
  0.983  0.993  0.993  0.996  1.002
    eigenvectors:
  0.000  0.001  0.004  0.993  0.002
  0.000  0.629  0.366  0.004  0.000
  0.002  0.368  0.628  0.001  0.000
  0.000  0.001  0.000  0.002  0.997
  0.998  0.000  0.002  0.000  0.000
    occupations:
  0.996  0.000 -0.000 -0.000 -0.000
  0.000  0.993 -0.000  0.000  0.000
 -0.000 -0.000  0.993  0.000 -0.000
 -0.000  0.000  0.000  1.002 -0.000
 -0.000  0.000 -0.000 -0.000  0.983
   spin  2
    eigenvalues:
  0.067  0.141  0.149  0.156  0.263
    eigenvectors:
  0.000  0.959  0.006  0.028  0.007
  0.000  0.029  0.004  0.966  0.001
  0.000  0.005  0.987  0.006  0.001
  1.000  0.000  0.000  0.000  0.000
  0.000  0.007  0.002  0.000  0.990
    occupations:
  0.142  0.002  0.001 -0.000 -0.010
  0.002  0.155 -0.001  0.001  0.004
  0.001 -0.001  0.149  0.001 -0.004
 -0.000  0.001  0.001  0.067  0.000
 -0.010  0.004 -0.004  0.000  0.262
atomic mag. moment =     4.189981
N of occupied +U levels =   45.880779
 --- exit write_ns ---

 ------ SPIN UP ------------

          k = 0.0000 0.0000 0.0000 ( 13629 PWs)   bands (ev):

   -66.3529 -66.3510 -66.3501 -66.3499 -66.3499 -66.3332 -66.2990 -61.9663
   -35.1349 -35.1183 -35.1183 -35.1182 -35.1181 -35.1021 -35.0940 -35.0929
   -35.0925 -35.0924 -35.0862 -35.0737 -35.0664 -35.0655 -35.0655 -35.0654
   -35.0608 -35.0589 -35.0486 -35.0349 -35.0253 -30.7936 -30.7923 -30.7877
     5.9042   7.4859   7.5571   8.0232   8.0840   8.2042   8.3138   8.3222
     8.6906   8.6927   8.9201   9.0313   9.2777   9.2803   9.3109   9.3175
     9.3537   9.4093   9.4467   9.4553   9.4939   9.5443   9.5491   9.5589
     9.5811   9.6184   9.6371   9.6731   9.6965   9.7223   9.7957   9.8353
     9.8950   9.9233   9.9365   9.9396   9.9414   9.9921   9.9970  10.0410
    10.1570  10.1750  10.2141  10.2253  10.2443  10.2470  10.2718  10.3838
    10.3859  10.4248  10.4316  10.4456  10.4568  10.4739  10.4762  10.4883
    10.5383  10.6237  10.6370  10.6458  10.6582  10.7726  10.7948  10.8332
    10.9134  11.0698  11.0735  11.1716  11.2432  11.3114  11.3117  11.3486
    11.4601  11.5341  11.5953  11.6114  11.7080  11.8001  11.8022  11.8101
    11.8138  11.8203  11.8450  11.8623  11.8684  11.9153  11.9672  12.0300
    12.0337  12.0785  12.1508  12.2466  12.2547  12.2681  12.2866  12.3367
    12.3598  12.3688  12.4268  12.4774  12.4902  12.4951  12.5035  12.5770
    12.5880  12.6215  12.6675  12.6706  12.6747  12.7228  12.7479  12.8091
    12.8589  12.9423  12.9713  13.0664  13.1005  13.2405  13.2423  13.2639
    13.2967  13.3744  13.3969  13.4465  14.0727  14.9898  15.0379  15.3383
    15.9240  16.2554  16.6523  16.8929  16.9468  17.4874  17.7142  17.7905
    18.0855  18.1624  18.8522  18.8598  18.9983  19.0873  19.1916  19.2069
    19.2475  19.3440

[...]

          k =-0.1768-0.1768-0.1360 ( 13673 PWs)   bands (ev):

[...]

 ------ SPIN DOWN ----------

[...]

          k =-0.5303 0.1768 0.4081 ( 13670 PWs)   bands (ev):

[...]

          k = 0.0000 0.7071 1.3603 ( 13696 PWs)   bands (ev):

   -66.6054 -61.8073 -61.8071 -61.8066 -61.8063 -61.8061 -61.7919 -61.7672
   -35.3711 -35.3403 -35.3240 -30.6452 -30.6415 -30.6410 -30.6409 -30.6408
   -30.6383 -30.6349 -30.6327 -30.6327 -30.6327 -30.6326 -30.6319 -30.6313
   -30.6311 -30.6234 -30.6213 -30.6205 -30.6135 -30.5974 -30.5952 -30.5933
     7.9208   8.0293   8.0560   8.0832   8.6644   8.7446   8.8778   8.9413
     8.9579   8.9597   8.9635   8.9721   9.1316   9.1509   9.2252   9.3116
     9.3185   9.4331   9.5387   9.5424   9.5509   9.5834   9.5962   9.7395
     9.7422   9.7803   9.7901   9.7949   9.8426   9.8474   9.8761   9.8785
     9.9550  10.1199  10.1570  10.1637  10.2134  10.2271  10.2400  10.2458
    10.2501  10.2893  10.4390  10.4668  10.7663  10.8248  11.0201  11.0532
    11.0683  11.0735  11.1255  11.1540  11.1715  11.1929  11.2717  11.2746
    11.2827  11.3257  11.4040  11.4149  11.4849  11.5469  11.5744  11.5828
    11.6279  11.7978  11.8658  11.9490  11.9691  12.1108  12.1145  12.1190
    12.1219  12.1306  12.1337  12.2504  12.2931  12.2941  12.3030  12.3265
    12.4192  12.5700  12.5841  12.5867  12.6079  12.6103  12.6213  12.6301
    12.6881  13.0461  13.0954  13.0954  13.1462  13.1776  13.2053  13.2484
    13.6001  14.0040  14.0102  14.1310  14.4265  15.0413  15.0654  15.4183
    15.6078  16.3234  16.3506  16.3580  16.6380  17.0302  17.0420  17.0521
    17.1898  17.2164  17.2474  17.3255  17.3457  17.3465  17.4079  17.4201
    17.4510  17.4541  17.4777  17.5510  17.5574  17.5749  17.6684  17.6789
    17.6998  17.7022  17.7284  17.7590  17.8803  18.1238  18.3785  18.3814
    18.4072  18.4701  18.4851  18.4917  18.5375  18.7065  18.7610  18.7738
    20.8200  21.0061

     the Fermi energy is    15.5170 ev

!    total energy              =  -14693.96552356 Ry
     Harris-Foulkes estimate   =  -14693.96550957 Ry
     estimated scf accuracy    <       0.00000036 Ry

     total all-electron energy =   -626921.561246 Ry

     The total energy is the sum of the following terms:

     one-electron contribution =    -698.69442611 Ry
     hartree contribution      =     651.74966625 Ry
     xc contribution           =    -738.07617324 Ry
     ewald contribution        =   -2207.56121140 Ry
     Hubbard energy            =       0.46837053 Ry
     one-center paw contrib.   =  -11701.85174960 Ry

     total magnetization       =    25.57 Bohr mag/cell
     absolute magnetization    =    36.76 Bohr mag/cell

     convergence has been achieved in  20 iterations

     Writing output data file mnau2.save/

     General routines

     Parallel routines

     Hubbard U routines

   This run was terminated on:  12:43:33  26Mar2019

   JOB DONE.