     Program PWSCF v.6.3MaX starts on 26Mar2019 at 11:41:21

     R & G space division:  proc/nbgrp/npool/nimage =      16
     Waiting for input...
     Reading input from standard input

     Current dimensions of program PWSCF are:
     Max number of different atomic species (ntypx) = 10
     Max number of k-points (npk) =  40000
     Max angular momentum in pseudopotentials (lmaxx) =  3
     Message from routine read_upf::
     Pseudo file ./pseudo/Mn.pbe-spn-kjpaw_psl.0.3.1.UPF has been successfully fixed on the fly.
To avoid this message in the future you can permanently fix
 your pseudo files following instructions given in:
               file Mn.pbe-spn-kjpaw_psl.0.3.1.UPF: wavefunction(s)  3P 3D renormalized
     Message from routine read_upf::
     Pseudo file ./pseudo/Mn.pbe-spn-kjpaw_psl.0.3.1.UPF has been successfully fixed on the fly.
To avoid this message in the future you can permanently fix
 your pseudo files following instructions given in:
               file Mn.pbe-spn-kjpaw_psl.0.3.1.UPF: wavefunction(s)  3P 3D renormalized
     Message from routine read_upf::
     Pseudo file ./pseudo/Au.pbe-dn-kjpaw_psl.0.1.UPF has been successfully fixed on the fly.
To avoid this message in the future you can permanently fix
 your pseudo files following instructions given in:
               file Au.pbe-dn-kjpaw_psl.0.1.UPF: wavefunction(s)  6S 6P 5D renormalized

     bravais-lattice index     =            0
     lattice parameter (alat)  =      18.0125  a.u.
     unit-cell volume          =    2685.0513 (a.u.)^3
     number of atoms/cell      =           24
     number of atomic types    =            3
     number of electrons       =       296.00
     number of Kohn-Sham states=          178
     kinetic-energy cutoff     =      45.0000  Ry
     charge density cutoff     =     400.0000  Ry
     convergence threshold     =      1.0E-06
     mixing beta               =       0.1000
     number of iterations used =            8  plain     mixing
     Exchange-correlation      = SLA PW PBX PBC ( 1  4  3  4 0 0)

     celldm(1)=  18.012490  celldm(2)=   0.000000  celldm(3)=   0.000000
     celldm(4)=   0.000000  celldm(5)=   0.000000  celldm(6)=   0.000000

     crystal axes: (cart. coord. in units of alat)
               a(1) = (   0.707107  -0.707107   0.000000 )
               a(2) = (  -0.707107  -0.707107   0.000000 )
               a(3) = (   0.176777   0.176777  -0.459443 )

     reciprocal axes: (cart. coord. in units 2 pi/alat)
               b(1) = (  0.707107 -0.707107  0.000000 )
               b(2) = ( -0.707107 -0.707107 -0.544138 )
               b(3) = (  0.000000  0.000000 -2.176550 )

     PseudoPot. # 1 for Mn read from file:
     ./pseudo/Mn.pbe-spn-kjpaw_psl.0.3.1.UPF
     MD5 check sum: 7eef95dd2aae66803482eea66ebeebf1
     Pseudo is Projector augmented-wave + core cor, Zval = 15.0
     Generated using "atomic" code by A. Dal Corso v.5.0.99 svn rev. 10869
     Shape of augmentation charge: PSQ
     Using radial grid of 1187 points,  6 beta functions with:
                l(1) =   0
                l(2) =   0
                l(3) =   1
                l(4) =   1
                l(5) =   2
                l(6) =   2
     Q(r) pseudized with 0 coefficients

     PseudoPot. # 2 for Mn read from file:
     ./pseudo/Mn.pbe-spn-kjpaw_psl.0.3.1.UPF
     MD5 check sum: 7eef95dd2aae66803482eea66ebeebf1
     Pseudo is Projector augmented-wave + core cor, Zval = 15.0
     Generated using "atomic" code by A. Dal Corso v.5.0.99 svn rev. 10869
     Shape of augmentation charge: PSQ
     Using radial grid of 1187 points,  6 beta functions with:
                l(1) =   0
                l(2) =   0
                l(3) =   1
                l(4) =   1
                l(5) =   2
                l(6) =   2
     Q(r) pseudized with 0 coefficients

     PseudoPot. # 3 for Au read from file:
     ./pseudo/Au.pbe-dn-kjpaw_psl.0.1.UPF
     MD5 check sum: 5c9b92683623e7ae2ab3f8e525febab6
     Pseudo is Projector augmented-wave + core cor, Zval = 11.0
     Generated using "atomic" code by A. Dal Corso v.5.0.2 svn rev. 9415
     Shape of augmentation charge: PSQ
     Using radial grid of 1279 points,  6 beta functions with:
                l(1) =   0
                l(2) =   0
                l(3) =   1
                l(4) =   1
                l(5) =   2
                l(6) =   2
     Q(r) pseudized with 0 coefficients

     atomic species   valence    mass     pseudopotential
        Mn1           15.00    54.93800     Mn( 1.00)
        Mn2           15.00    54.93800     Mn( 1.00)
        Au            11.00   196.96600     Au( 1.00)

     Starting magnetic structure
     atomic species   magnetization
        Mn1          1.000
        Mn2         -1.000
        Au           0.000

     Full LDA+U calculation (l_max = 2) with parameters (eV):
     U(  1) =   3.1200   J(  1) =   0.7000   B(  1) =   0.0803
     U(  2) =   3.1200   J(  2) =   0.7000   B(  2) =   0.0803

      2 Sym. Ops. (no inversion) found ( 1 have fractional translation)

   Cartesian axes

     site n.     atom                  positions (alat units)
         1           Mn1 tau(   1) = (   0.3535534  -0.3535534   0.0000000  )
         2           Mn1 tau(   2) = (   0.0000000   0.0000000   0.0000000  )
         3           Mn1 tau(   3) = (   0.0000000  -0.3535534   0.0000000  )
         4           Mn2 tau(   4) = (   0.3535534  -0.7071068   0.0000000  )
         5           Mn2 tau(   5) = (  -0.3535534  -0.3535534   0.0000000  )
         6           Mn2 tau(   6) = (   0.0000000  -0.7071068   0.0000000  )
         7           Mn1 tau(   7) = (  -0.3535534  -0.7071068   0.0000000  )
         8           Mn1 tau(   8) = (   0.0000000  -1.0606602   0.0000000  )
         9           Au  tau(   9) = (  -0.1767767  -0.1767767  -0.1470216  )
        10           Au  tau(  10) = (   0.1767767  -0.5303301  -0.1470216  )
        11           Au  tau(  11) = (  -0.1767767  -0.5303301  -0.1470216  )
        12           Au  tau(  12) = (   0.1767767  -0.8838835  -0.1470216  )
        13           Au  tau(  13) = (  -0.5303301  -0.5303301  -0.1470216  )
        14           Au  tau(  14) = (  -0.1767767  -0.8838835  -0.1470216  )
        15           Au  tau(  15) = (   0.5303301  -0.5303301  -0.1470216  )
        16           Au  tau(  16) = (   0.1767767  -0.1767767  -0.1470216  )
        17           Au  tau(  17) = (   0.3535534  -0.3535534  -0.3124210  )
        18           Au  tau(  18) = (   0.0000000   0.0000000  -0.3124210  )
        19           Au  tau(  19) = (   0.0000000  -0.3535534  -0.3124210  )
        20           Au  tau(  20) = (   0.3535534  -0.7071068  -0.3124210  )
        21           Au  tau(  21) = (  -0.3535534  -0.3535534  -0.3124210  )
        22           Au  tau(  22) = (  -0.0000000  -0.7071068  -0.3124210  )
        23           Au  tau(  23) = (  -0.3535534  -0.7071068  -0.3124210  )
        24           Au  tau(  24) = (   0.0000000  -1.0606602  -0.3124210  )

     number of k points=    30 (tetrahedron method)
                       cart. coord. in units 2pi/alat
        k(    1) = (   0.0000000   0.0000000   0.0000000), wk =   0.0156250
        k(    2) = (   0.0000000   0.0000000  -0.5441376), wk =   0.0312500
        k(    3) = (   0.0000000   0.0000000   1.0882752), wk =   0.0156250
        k(    4) = (  -0.1767767  -0.1767767  -0.1360344), wk =   0.0312500
        k(    5) = (  -0.1767767  -0.1767767  -0.6801720), wk =   0.0312500
        k(    6) = (  -0.1767767  -0.1767767   0.9522408), wk =   0.0312500
        k(    7) = (  -0.1767767  -0.1767767   0.4081032), wk =   0.0312500
        k(    8) = (   0.3535534   0.3535534   0.2720688), wk =   0.0156250
        k(    9) = (   0.3535534   0.3535534  -0.2720688), wk =   0.0312500
        k(   10) = (   0.3535534   0.3535534   1.3603439), wk =   0.0156250
        k(   11) = (   0.1767767  -0.1767767   0.0000000), wk =   0.0312500
        k(   12) = (   0.1767767  -0.1767767  -0.5441376), wk =   0.0625000
        k(   13) = (   0.1767767  -0.1767767   1.0882752), wk =   0.0312500
        k(   14) = (   0.0000000  -0.3535534  -0.1360344), wk =   0.0625000
        k(   15) = (   0.0000000  -0.3535534  -0.6801720), wk =   0.0625000
        k(   16) = (   0.0000000  -0.3535534   0.9522408), wk =   0.0625000
        k(   17) = (   0.0000000  -0.3535534   0.4081032), wk =   0.0625000
        k(   18) = (   0.5303301   0.1767767   0.2720688), wk =   0.0312500
        k(   19) = (   0.5303301   0.1767767  -0.2720688), wk =   0.0625000
        k(   20) = (   0.5303301   0.1767767   1.3603439), wk =   0.0312500
        k(   21) = (  -0.3535534   0.3535534   0.0000000), wk =   0.0156250
        k(   22) = (  -0.3535534   0.3535534  -0.5441376), wk =   0.0312500
        k(   23) = (  -0.3535534   0.3535534   1.0882752), wk =   0.0156250
        k(   24) = (  -0.5303301   0.1767767  -0.1360344), wk =   0.0312500
        k(   25) = (  -0.5303301   0.1767767  -0.6801720), wk =   0.0312500
        k(   26) = (  -0.5303301   0.1767767   0.9522408), wk =   0.0312500
        k(   27) = (  -0.5303301   0.1767767   0.4081032), wk =   0.0312500
        k(   28) = (   0.0000000   0.7071068   0.2720688), wk =   0.0156250
        k(   29) = (   0.0000000   0.7071068  -0.2720688), wk =   0.0312500
        k(   30) = (   0.0000000   0.7071068   1.3603439), wk =   0.0156250

     Check: negative/imaginary core charge=   -0.000006    0.000000

     Initial potential from superposition of free atoms

     starting charge  295.99426, renormalised to  296.00000
     Number of +U iterations with fixed ns =  0
     Starting occupations:
 --- enter write_ns ---
 LDA+U parameters:
U(  1) =   3.1200   J(  1) =   0.7000   B(  1) =   0.0803
U(  2) =   3.1200   J(  2) =   0.7000   B(  2) =   0.0803
atom    1   Tr[ns(na)] (up, down, total) =   5.00000  0.00000  5.00000
   spin  1
    eigenvalues:
  1.000  1.000  1.000  1.000  1.000
    eigenvectors:
  1.000  0.000  0.000  0.000  0.000
  0.000  1.000  0.000  0.000  0.000
  0.000  0.000  1.000  0.000  0.000
  0.000  0.000  0.000  1.000  0.000
  0.000  0.000  0.000  0.000  1.000
    occupations:
  1.000  0.000  0.000  0.000  0.000
  0.000  1.000  0.000  0.000  0.000
  0.000  0.000  1.000  0.000  0.000
  0.000  0.000  0.000  1.000  0.000
  0.000  0.000  0.000  0.000  1.000
   spin  2
    eigenvalues:
  0.000  0.000  0.000  0.000  0.000
    eigenvectors:
  1.000  0.000  0.000  0.000  0.000
  0.000  1.000  0.000  0.000  0.000
  0.000  0.000  1.000  0.000  0.000
  0.000  0.000  0.000  1.000  0.000
  0.000  0.000  0.000  0.000  1.000
    occupations:
  0.000  0.000  0.000  0.000  0.000
  0.000  0.000  0.000  0.000  0.000
  0.000  0.000  0.000  0.000  0.000
  0.000  0.000  0.000  0.000  0.000
  0.000  0.000  0.000  0.000  0.000
atomic mag. moment =     5.000000
atom    2   Tr[ns(na)] (up, down, total) =   5.00000  0.00000  5.00000
   spin  1
    eigenvalues:
  1.000  1.000  1.000  1.000  1.000
    eigenvectors:
  1.000  0.000  0.000  0.000  0.000
  0.000  1.000  0.000  0.000  0.000
  0.000  0.000  1.000  0.000  0.000
  0.000  0.000  0.000  1.000  0.000
  0.000  0.000  0.000  0.000  1.000
    occupations:
[...]
   spin  1
    eigenvalues:
  1.003  1.003  1.003  1.003  1.004
    eigenvectors:
  0.001  0.000  0.000  0.999  0.000
  0.000  0.500  0.500  0.000  0.000
  0.000  0.500  0.500  0.000  0.000
  0.000  0.001  0.000  0.000  0.999
  0.999  0.000  0.000  0.001  0.000
    occupations:
  1.003 -0.000 -0.000 -0.000  0.000
 -0.000  1.003  0.000 -0.000  0.000
 -0.000  0.000  1.003  0.000  0.000
 -0.000 -0.000  0.000  1.004 -0.000
  0.000  0.000  0.000 -0.000  1.003
   spin  2
    eigenvalues:
  0.041  0.053  0.054  0.056  0.072
    eigenvectors:
  0.000  0.930  0.000  0.069  0.000
  0.000  0.035  0.500  0.460  0.005
  0.000  0.035  0.500  0.460  0.005
  1.000  0.000  0.000  0.000  0.000
  0.000  0.000  0.000  0.011  0.989
    occupations:
  0.053  0.001  0.001 -0.000  0.000
  0.001  0.055  0.001 -0.000  0.001
  0.001  0.001  0.055  0.000  0.001
 -0.000 -0.000  0.000  0.041 -0.000
  0.000  0.001  0.001 -0.000  0.072
atomic mag. moment =     4.738699
N of occupied +U levels =   42.315331
 --- exit write_ns ---

     total energy              =  -14679.21773858 Ry
     Harris-Foulkes estimate   =  -14669.80938466 Ry
     estimated scf accuracy    <      21.28054976 Ry

     total magnetization       =    10.52 Bohr mag/cell
     absolute magnetization    =    43.54 Bohr mag/cell

     iteration #  2     ecut=    45.00 Ry     beta= 0.10
     Davidson diagonalization with overlap
     ethr =  7.19E-03,  avg # of iterations =  1.0

[...]

     total energy              =  -14693.94201466 Ry
     Harris-Foulkes estimate   =  -14693.94201097 Ry
     estimated scf accuracy    <       0.00000173 Ry

[...]

     iteration # 20     ecut=    45.00 Ry     beta= 0.10
     Davidson diagonalization with overlap
     ethr =  5.86E-10,  avg # of iterations =  2.7

     Magnetic moment per site:
     atom:    1    charge:   13.5449    magn:    4.1947    constr:    0.0000
     atom:    2    charge:   13.5449    magn:    4.1947    constr:    0.0000
     atom:    3    charge:   13.5414    magn:    4.2116    constr:    0.0000
     atom:    4    charge:   13.5361    magn:   -4.2490    constr:    0.0000
     atom:    5    charge:   13.5334    magn:   -4.2693    constr:    0.0000
     atom:    6    charge:   13.5334    magn:   -4.2693    constr:    0.0000
     atom:    7    charge:   13.5425    magn:    4.2012    constr:    0.0000
     atom:    8    charge:   13.5436    magn:    4.2122    constr:    0.0000
     atom:    9    charge:    9.0908    magn:   -0.0126    constr:    0.0000
     atom:   10    charge:    9.0908    magn:   -0.0126    constr:    0.0000
     atom:   11    charge:    9.0921    magn:   -0.0066    constr:    0.0000
     atom:   12    charge:    9.0930    magn:   -0.0287    constr:    0.0000
     atom:   13    charge:    9.0909    magn:    0.0214    constr:    0.0000
     atom:   14    charge:    9.0909    magn:    0.0214    constr:    0.0000
     atom:   15    charge:    9.0903    magn:   -0.0004    constr:    0.0000
     atom:   16    charge:    9.0904    magn:    0.0433    constr:    0.0000
     atom:   17    charge:    9.0901    magn:   -0.0012    constr:    0.0000
     atom:   18    charge:    9.0901    magn:   -0.0012    constr:    0.0000
     atom:   19    charge:    9.0934    magn:   -0.0056    constr:    0.0000
     atom:   20    charge:    9.0927    magn:   -0.0403    constr:    0.0000
     atom:   21    charge:    9.0915    magn:    0.0088    constr:    0.0000
     atom:   22    charge:    9.0915    magn:    0.0088    constr:    0.0000
     atom:   23    charge:    9.0900    magn:    0.0372    constr:    0.0000
     atom:   24    charge:    9.0905    magn:    0.0177    constr:    0.0000

     End of self-consistent calculation
 --- enter write_ns ---
 LDA+U parameters:
U(  1) =   3.1200   J(  1) =   0.7000   B(  1) =   0.0803
U(  2) =   3.1200   J(  2) =   0.7000   B(  2) =   0.0803
atom    1   Tr[ns(na)] (up, down, total) =   4.96520  0.77068  5.73588
   spin  1
    eigenvalues:
  0.983  0.992  0.992  0.996  1.002
    eigenvectors:
  0.000  0.033  0.002  0.962  0.003
  0.000  0.325  0.670  0.005  0.000
  0.000  0.642  0.328  0.030  0.000
  0.000  0.000  0.000  0.003  0.997
  0.999  0.000  0.001  0.000  0.000
    occupations:
  0.996 -0.000 -0.001 -0.000  0.000
 -0.000  0.992 -0.000  0.000  0.000
 -0.001 -0.000  0.992  0.000 -0.000
 -0.000  0.000  0.000  1.002  0.000
  0.000  0.000 -0.000  0.000  0.983
   spin  2
    eigenvalues:
  0.067  0.129  0.149  0.157  0.267
    eigenvectors:
  0.000  0.994  0.000  0.003  0.002
  0.000  0.003  0.000  0.990  0.006
  0.000  0.000  0.999  0.000  0.000
  1.000  0.000  0.000  0.000  0.000
  0.000  0.002  0.000  0.006  0.992
    occupations:
  0.130 -0.001  0.000  0.000  0.006
 -0.001  0.158 -0.000  0.001  0.009
  0.000 -0.000  0.149  0.001 -0.002
  0.000  0.001  0.001  0.067 -0.000
  0.006  0.009 -0.002 -0.000  0.266
atomic mag. moment =     4.194518
atom    2   Tr[ns(na)] (up, down, total) =   4.96520  0.77068  5.73588
   spin  1
    eigenvalues:
  0.983  0.992  0.992  0.996  1.002
    eigenvectors:
  0.000  0.033  0.002  0.962  0.003
  0.000  0.642  0.328  0.030  0.000
  0.000  0.325  0.670  0.005  0.000
  0.000  0.000  0.000  0.003  0.997
  0.999  0.000  0.001  0.000  0.000
    occupations:
  0.996 -0.001 -0.000  0.000  0.000
 -0.001  0.992 -0.000 -0.000 -0.000
 -0.000 -0.000  0.992 -0.000  0.000
  0.000 -0.000 -0.000  1.002 -0.000
  0.000 -0.000  0.000 -0.000  0.983
   spin  2
    eigenvalues:
  0.067  0.129  0.149  0.157  0.267
    eigenvectors:
  0.000  0.994  0.000  0.003  0.002
  0.000  0.000  0.999  0.000  0.000
  0.000  0.003  0.000  0.990  0.006
  1.000  0.000  0.000  0.000  0.000
  0.000  0.002  0.000  0.006  0.992
    occupations:
  0.130  0.000 -0.001 -0.000  0.006
  0.000  0.149 -0.000 -0.001 -0.002
 -0.001 -0.000  0.158 -0.001  0.009
 -0.000 -0.001 -0.001  0.067  0.000
  0.006 -0.002  0.009  0.000  0.266
atomic mag. moment =     4.194518
atom    3   Tr[ns(na)] (up, down, total) =   4.96610  0.75372  5.71982
   spin  1
    eigenvalues:
  0.983  0.991  0.993  0.997  1.001
    eigenvectors:
  0.001  0.000  0.044  0.955  0.000
  0.001  0.500  0.477  0.022  0.000
  0.001  0.500  0.477  0.022  0.000
  0.000  0.001  0.000  0.000  0.999
  0.997  0.000  0.002  0.001  0.000
    occupations:
  0.997  0.001  0.001 -0.000  0.000
  0.001  0.992  0.001 -0.000  0.000
  0.001  0.001  0.992  0.000  0.000
 -0.000 -0.000  0.000  1.001 -0.000
  0.000  0.000  0.000 -0.000  0.983
   spin  2
    eigenvalues:
  0.069  0.126  0.150  0.155  0.254
    eigenvectors:
  0.000  0.939  0.048  0.000  0.013
  0.000  0.026  0.470  0.500  0.004
  0.000  0.026  0.470  0.500  0.004
  1.000  0.000  0.000  0.000  0.000
  0.000  0.009  0.012  0.000  0.980
    occupations:
  0.129  0.005  0.005  0.000 -0.014
  0.005  0.152 -0.003 -0.000 -0.006
  0.005 -0.003  0.152  0.000 -0.006
  0.000 -0.000  0.000  0.069 -0.000
 -0.014 -0.006 -0.006 -0.000  0.252
atomic mag. moment =     4.212377
atom    4   Tr[ns(na)] (up, down, total) =   0.72694  4.96984  5.69678
   spin  1
    eigenvalues:
  0.069  0.121  0.145  0.146  0.245
    eigenvectors:
  0.000  0.957  0.038  0.000  0.005
  0.000  0.021  0.468  0.500  0.012
  0.000  0.021  0.468  0.500  0.012
  1.000  0.000  0.000  0.000  0.000
  0.000  0.002  0.027  0.000  0.971
    occupations:
  0.123  0.004  0.004 -0.000  0.008
  0.004  0.146  0.000 -0.001  0.011
  0.004  0.000  0.146  0.001  0.011
 -0.000 -0.001  0.001  0.069 -0.000
  0.008  0.011  0.011 -0.000  0.242
   spin  2
    eigenvalues:
  0.986  0.992  0.993  0.997  1.002
    eigenvectors:
  0.003  0.000  0.049  0.948  0.000
  0.001  0.500  0.474  0.025  0.000
  0.001  0.500  0.474  0.025  0.000
  0.000  0.000  0.000  0.000  1.000
  0.995  0.000  0.003  0.002  0.000
    occupations:
  0.997 -0.001 -0.001 -0.000 -0.001
 -0.001  0.993  0.000 -0.000 -0.000
 -0.001  0.000  0.993  0.000 -0.000
 -0.000 -0.000  0.000  1.002 -0.000
 -0.001 -0.000 -0.000 -0.000  0.986
atomic mag. moment =    -4.242909
atom    5   Tr[ns(na)] (up, down, total) =   0.71196  4.97219  5.68415
   spin  1
    eigenvalues:
  0.071  0.127  0.136  0.144  0.234
    eigenvectors:
  0.000  0.991  0.002  0.002  0.005
  0.003  0.004  0.605  0.388  0.000
  0.000  0.000  0.380  0.583  0.037
  0.997  0.001  0.002  0.001  0.000
  0.000  0.005  0.012  0.027  0.957
    occupations:
  0.128  0.001  0.002  0.001  0.007
  0.001  0.139  0.004 -0.003  0.000
  0.002  0.004  0.145  0.000  0.018
  0.001 -0.003  0.000  0.071  0.000
  0.007  0.000  0.018  0.000  0.230
   spin  2
    eigenvalues:
  0.986  0.993  0.994  0.997  1.002
    eigenvectors:
  0.011  0.052  0.002  0.932  0.003
  0.001  0.590  0.362  0.046  0.001
  0.010  0.345  0.633  0.012  0.000
  0.000  0.000  0.000  0.003  0.996
  0.978  0.012  0.003  0.007  0.000
    occupations:
  0.997 -0.001 -0.001  0.000 -0.001
 -0.001  0.994 -0.001 -0.000 -0.000
 -0.001 -0.001  0.994 -0.000 -0.001
  0.000 -0.000 -0.000  1.002  0.000
 -0.001 -0.000 -0.001  0.000  0.986
atomic mag. moment =    -4.260230
atom    6   Tr[ns(na)] (up, down, total) =   0.71196  4.97219  5.68415
   spin  1
    eigenvalues:
  0.071  0.127  0.136  0.144  0.234
    eigenvectors:
  0.000  0.991  0.002  0.002  0.005
  0.000  0.000  0.380  0.583  0.037
  0.003  0.004  0.605  0.388  0.000
  0.997  0.001  0.002  0.001  0.000
  0.000  0.005  0.012  0.027  0.957
    occupations:
  0.128  0.002  0.001 -0.001  0.007
  0.002  0.145  0.004 -0.000  0.018
  0.001  0.004  0.139  0.003  0.000
 -0.001 -0.000  0.003  0.071 -0.000
  0.007  0.018  0.000 -0.000  0.230
   spin  2
    eigenvalues:
  0.986  0.993  0.994  0.997  1.002
    eigenvectors:
  0.011  0.052  0.002  0.932  0.003
  0.010  0.345  0.633  0.012  0.000
  0.001  0.590  0.362  0.046  0.001
  0.000  0.000  0.000  0.003  0.996
  0.978  0.012  0.003  0.007  0.000
    occupations:
  0.997 -0.001 -0.001 -0.000 -0.001
 -0.001  0.994 -0.001  0.000 -0.001
 -0.001 -0.001  0.994  0.000 -0.000
 -0.000  0.000  0.000  1.002 -0.000
 -0.001 -0.001 -0.000 -0.000  0.986
atomic mag. moment =    -4.260230
atom    7   Tr[ns(na)] (up, down, total) =   4.96492  0.76408  5.72900
   spin  1
    eigenvalues:
  0.983  0.992  0.993  0.996  1.001
    eigenvectors:
  0.000  0.000  0.012  0.988  0.000
  0.000  0.500  0.494  0.006  0.000
  0.000  0.500  0.494  0.006  0.000
  0.000  0.000  0.000  0.000  1.000
  1.000  0.000  0.000  0.000  0.000
    occupations:
  0.996  0.000  0.000 -0.000  0.000
  0.000  0.992  0.000  0.000 -0.000
  0.000  0.000  0.992 -0.000 -0.000
 -0.000  0.000 -0.000  1.001 -0.000
  0.000 -0.000 -0.000 -0.000  0.983
   spin  2
    eigenvalues:
  0.069  0.129  0.151  0.153  0.262
    eigenvectors:
  0.000  0.726  0.273  0.000  0.001
  0.001  0.136  0.351  0.499  0.013
  0.001  0.136  0.351  0.499  0.013
  0.999  0.000  0.000  0.001  0.000
  0.000  0.003  0.025  0.000  0.973
    occupations:
  0.135  0.007  0.007 -0.000 -0.003
  0.007  0.150 -0.003  0.002 -0.013
  0.007 -0.003  0.150 -0.002 -0.013
 -0.000  0.002 -0.002  0.069 -0.000
 -0.003 -0.013 -0.013 -0.000  0.259
atomic mag. moment =     4.200840
atom    8   Tr[ns(na)] (up, down, total) =   4.96731  0.75763  5.72493
   spin  1
    eigenvalues:
  0.984  0.992  0.994  0.996  1.001
    eigenvectors:
  0.003  0.007  0.000  0.991  0.000
  0.001  0.495  0.500  0.003  0.000
  0.001  0.495  0.500  0.003  0.000
  0.000  0.000  0.000  0.000  1.000
  0.994  0.002  0.000  0.003  0.000
    occupations:
  0.996 -0.000 -0.000 -0.000 -0.001
 -0.000  0.993 -0.001 -0.000  0.000
 -0.000 -0.001  0.993  0.000  0.000
 -0.000 -0.000  0.000  1.001 -0.000
 -0.001  0.000  0.000 -0.000  0.984
   spin  2
    eigenvalues:
  0.068  0.124  0.150  0.156  0.259
    eigenvectors:
  0.000  0.964  0.034  0.000  0.002
  0.000  0.016  0.479  0.500  0.005
  0.000  0.016  0.479  0.500  0.005
  1.000  0.000  0.000  0.000  0.000
  0.000  0.004  0.008  0.000  0.988
    occupations:
  0.125 -0.003 -0.003 -0.000  0.006
 -0.003  0.153 -0.003 -0.000  0.008
 -0.003 -0.003  0.153  0.000  0.008
 -0.000 -0.000  0.000  0.068 -0.000
  0.006  0.008  0.008 -0.000  0.258
atomic mag. moment =     4.209683
N of occupied +U levels =   45.710587
 --- exit write_ns ---

 ------ SPIN UP ------------

          k = 0.0000 0.0000 0.0000 ( 13629 PWs)   bands (ev):

   -66.4068 -66.3839 -66.3628 -66.3487 -66.3483 -61.9006 -61.9002 -61.8806
   -35.1768 -35.1562 -35.1497 -35.1415 -35.1290 -35.1289 -35.1169 -35.1124
   -35.1063 -35.0971 -35.0803 -35.0795 -35.0758 -35.0601 -35.0598 -30.7302
   -30.7300 -30.7275 -30.7272 -30.7214 -30.7213 -30.7109 -30.7037 -30.7033
     5.9506   7.5529   7.6311   8.0871   8.1567   8.3307   8.4419   8.4696
     8.7050   8.7080   9.0400   9.1575   9.3556   9.3822   9.3970   9.4064
     9.4490   9.4650   9.5396   9.5605   9.5676   9.6034   9.6061   9.6299
     9.6400   9.6430   9.7117   9.8301   9.8642   9.9410   9.9465   9.9505
     9.9688  10.0142  10.0160  10.0384  10.0609  10.1201  10.1879  10.2200
    10.2322  10.2657  10.2669  10.3036  10.3137  10.3373  10.4231  10.4246
    10.4866  10.4915  10.5031  10.5094  10.5204  10.5903  10.6272  10.6638
    10.7285  10.7494  10.8419  10.8751  11.0327  11.0746  11.0861  11.1204
    11.1673  11.1677  11.3299  11.3320  11.3717  11.3860  11.4693  11.5721
    11.7165  11.7940  11.8173  11.8188  11.8257  11.8322  11.8709  11.8969
    11.9626  12.0027  12.0146  12.1457  12.2009  12.2298  12.2684  12.2750
    12.2773  12.3270  12.3556  12.3668  12.3697  12.4200  12.4724  12.5126
    12.5216  12.5300  12.5710  12.6283  12.6811  12.6924  12.6971  12.7666
    12.8391  12.9098  12.9421  13.1168  13.1605  13.2261  13.2558  13.2684
    13.2703  13.2990  14.1268  14.5869  15.0443  15.0945  15.3426  15.8499
    16.2754  16.4549  16.6294  16.7462  16.8526  16.8960  17.1045  17.1118
    17.3117  17.3815  17.4327  17.4997  17.7268  17.8129  17.8318  18.1676
    18.3450  18.5962  19.1133  19.1265  19.3407  19.3744  19.4384  19.4519
    19.4580  19.6787

[...]

          k =-0.1768-0.1768-0.1360 ( 13673 PWs)   bands (ev):

[...]

 ------ SPIN DOWN ----------

[...]

          k =-0.5303 0.1768 0.4081 ( 13670 PWs)   bands (ev):

[...]

          k = 0.0000 0.7071 1.3603 ( 13696 PWs)   bands (ev):

   -66.5116 -66.5113 -66.4754 -61.8459 -61.8348 -61.8027 -61.8025 -61.8020
   -35.2802 -35.2802 -35.2539 -35.2413 -35.2413 -35.2335 -35.2335 -35.2013
   -35.1907 -30.6772 -30.6729 -30.6682 -30.6640 -30.6628 -30.6577 -30.6351
   -30.6347 -30.6325 -30.6314 -30.6312 -30.6304 -30.6296 -30.6213 -30.6210
     7.8576   7.9167   7.9894   8.0067   8.5872   8.6481   8.6751   8.7314
     8.8248   8.8470   8.8742   8.9602   9.0482   9.0734   9.1097   9.1569
     9.1828   9.1895   9.2592   9.2946   9.4470   9.4906   9.5364   9.5582
     9.5812   9.6085   9.6174   9.6775   9.6874   9.7203   9.7783   9.7816
     9.8482   9.9558  10.0089  10.0612  10.0833  10.1781  10.1955  10.2150
    10.2367  10.2394  10.2804  10.2990  10.5224  10.5306  10.7932  10.8173
    10.9082  10.9600  10.9904  11.0070  11.0338  11.1151  11.1318  11.1480
    11.2313  11.2317  11.2657  11.2831  11.4129  11.4383  11.4889  11.5129
    11.5244  11.6535  11.6617  11.7146  11.8026  11.8803  11.9110  11.9320
    11.9511  11.9821  11.9946  12.0046  12.0262  12.0574  12.0687  12.1277
    12.1312  12.2305  12.2452  12.2712  12.2773  12.3094  12.3242  12.3506
    12.3995  12.4433  12.5113  12.6120  12.6123  12.6471  12.6528  12.6717
    12.6949  12.7192  12.8191  13.0733  13.1187  13.1962  13.2785  13.3685
    13.3907  13.6470  13.7828  14.1381  14.2855  14.5835  14.6565  15.4302
    15.5487  15.8682  16.1200  16.3136  16.4208  16.5888  16.7261  17.0460
    17.2328  17.2587  17.2781  17.3009  17.4087  17.4608  17.4732  17.4980
    17.5416  17.5696  17.5839  17.6321  17.6868  17.7238  17.8742  18.0751
    18.1958  18.2904  18.3449  18.4022  18.4512  18.4607  18.6068  18.6251
    20.6160  20.8267

     the Fermi energy is    15.5636 ev

!    total energy              =  -14693.94202854 Ry
     Harris-Foulkes estimate   =  -14693.94201363 Ry
     estimated scf accuracy    <       0.00000075 Ry

     total all-electron energy =   -626921.537750 Ry

     The total energy is the sum of the following terms:

     one-electron contribution =    -698.47348971 Ry
     hartree contribution      =     651.61215682 Ry
     xc contribution           =    -738.10633308 Ry
     ewald contribution        =   -2207.56121140 Ry
     Hubbard energy            =       0.45787627 Ry
     one-center paw contrib.   =  -11701.87102744 Ry

     total magnetization       =     8.29 Bohr mag/cell
     absolute magnetization    =    36.83 Bohr mag/cell

     convergence has been achieved in  20 iterations

     Writing output data file mnau2.save/

     General routines

     Parallel routines

     Hubbard U routines

   This run was terminated on:  11:59: 5  26Mar2019

   JOB DONE.