     Program PWSCF v.6.3MaX starts on 26Mar2019 at 11:59: 6

     R & G space division:  proc/nbgrp/npool/nimage =      16
     Waiting for input...
     Reading input from standard input

     Current dimensions of program PWSCF are:
     Max number of different atomic species (ntypx) = 10
     Max number of k-points (npk) =  40000
     Max angular momentum in pseudopotentials (lmaxx) =  3
     Message from routine read_upf::
     Pseudo file ./pseudo/Mn.pbe-spn-kjpaw_psl.0.3.1.UPF has been successfully fixed on the fly.
To avoid this message in the future you can permanently fix
 your pseudo files following instructions given in:
               file Mn.pbe-spn-kjpaw_psl.0.3.1.UPF: wavefunction(s)  3P 3D renormalized
     Message from routine read_upf::
     Pseudo file ./pseudo/Mn.pbe-spn-kjpaw_psl.0.3.1.UPF has been successfully fixed on the fly.
To avoid this message in the future you can permanently fix
 your pseudo files following instructions given in:
               file Mn.pbe-spn-kjpaw_psl.0.3.1.UPF: wavefunction(s)  3P 3D renormalized
     Message from routine read_upf::
     Pseudo file ./pseudo/Au.pbe-dn-kjpaw_psl.0.1.UPF has been successfully fixed on the fly.
To avoid this message in the future you can permanently fix
 your pseudo files following instructions given in:
               file Au.pbe-dn-kjpaw_psl.0.1.UPF: wavefunction(s)  6S 6P 5D renormalized

     bravais-lattice index     =            0
     lattice parameter (alat)  =      18.0125  a.u.
     unit-cell volume          =    2685.0513 (a.u.)^3
     number of atoms/cell      =           24
     number of atomic types    =            3
     number of electrons       =       296.00
     number of Kohn-Sham states=          178
     kinetic-energy cutoff     =      45.0000  Ry
     charge density cutoff     =     400.0000  Ry
     convergence threshold     =      1.0E-06
     mixing beta               =       0.1000
     number of iterations used =            8  plain     mixing
     Exchange-correlation      = SLA PW PBX PBC ( 1  4  3  4 0 0)

     celldm(1)=  18.012490  celldm(2)=   0.000000  celldm(3)=   0.000000
     celldm(4)=   0.000000  celldm(5)=   0.000000  celldm(6)=   0.000000

     crystal axes: (cart. coord. in units of alat)
               a(1) = (   0.707107  -0.707107   0.000000 )
               a(2) = (  -0.707107  -0.707107   0.000000 )
               a(3) = (   0.176777   0.176777  -0.459443 )

     reciprocal axes: (cart. coord. in units 2 pi/alat)
               b(1) = (  0.707107 -0.707107  0.000000 )
               b(2) = ( -0.707107 -0.707107 -0.544138 )
               b(3) = (  0.000000  0.000000 -2.176550 )

     PseudoPot. # 1 for Mn read from file:
     ./pseudo/Mn.pbe-spn-kjpaw_psl.0.3.1.UPF
     MD5 check sum: 7eef95dd2aae66803482eea66ebeebf1
     Pseudo is Projector augmented-wave + core cor, Zval = 15.0
     Generated using "atomic" code by A. Dal Corso v.5.0.99 svn rev. 10869
     Shape of augmentation charge: PSQ
     Using radial grid of 1187 points,  6 beta functions with:
                l(1) =   0
                l(2) =   0
                l(3) =   1
                l(4) =   1
                l(5) =   2
                l(6) =   2
     Q(r) pseudized with 0 coefficients

     PseudoPot. # 2 for Mn read from file:
     ./pseudo/Mn.pbe-spn-kjpaw_psl.0.3.1.UPF
     MD5 check sum: 7eef95dd2aae66803482eea66ebeebf1
     Pseudo is Projector augmented-wave + core cor, Zval = 15.0
     Generated using "atomic" code by A. Dal Corso v.5.0.99 svn rev. 10869
     Shape of augmentation charge: PSQ
     Using radial grid of 1187 points,  6 beta functions with:
                l(1) =   0
                l(2) =   0
                l(3) =   1
                l(4) =   1
                l(5) =   2
                l(6) =   2
     Q(r) pseudized with 0 coefficients

     PseudoPot. # 3 for Au read from file:
     ./pseudo/Au.pbe-dn-kjpaw_psl.0.1.UPF
     MD5 check sum: 5c9b92683623e7ae2ab3f8e525febab6
     Pseudo is Projector augmented-wave + core cor, Zval = 11.0
     Generated using "atomic" code by A. Dal Corso v.5.0.2 svn rev. 9415
     Shape of augmentation charge: PSQ
     Using radial grid of 1279 points,  6 beta functions with:
                l(1) =   0
                l(2) =   0
                l(3) =   1
                l(4) =   1
                l(5) =   2
                l(6) =   2
     Q(r) pseudized with 0 coefficients

     atomic species   valence    mass     pseudopotential
        Mn1           15.00    54.93800     Mn( 1.00)
        Mn2           15.00    54.93800     Mn( 1.00)
        Au            11.00   196.96600     Au( 1.00)

     Starting magnetic structure
     atomic species   magnetization
        Mn1          1.000
        Mn2         -1.000
        Au           0.000

     Full LDA+U calculation (l_max = 2) with parameters (eV):
     U(  1) =   3.1200   J(  1) =   0.7000   B(  1) =   0.0803
     U(  2) =   3.1200   J(  2) =   0.7000   B(  2) =   0.0803

      2 Sym. Ops., with inversion, found

   Cartesian axes

     site n.     atom                  positions (alat units)
         1           Mn1 tau(   1) = (   0.3535534  -0.3535534   0.0000000  )
         2           Mn1 tau(   2) = (   0.0000000   0.0000000   0.0000000  )
         3           Mn2 tau(   3) = (   0.0000000  -0.3535534   0.0000000  )
         4           Mn1 tau(   4) = (   0.3535534  -0.7071068   0.0000000  )
         5           Mn2 tau(   5) = (  -0.3535534  -0.3535534   0.0000000  )
         6           Mn1 tau(   6) = (   0.0000000  -0.7071068   0.0000000  )
         7           Mn1 tau(   7) = (  -0.3535534  -0.7071068   0.0000000  )
         8           Mn2 tau(   8) = (   0.0000000  -1.0606602   0.0000000  )
         9           Au  tau(   9) = (  -0.1767767  -0.1767767  -0.1470216  )
        10           Au  tau(  10) = (   0.1767767  -0.5303301  -0.1470216  )
        11           Au  tau(  11) = (  -0.1767767  -0.5303301  -0.1470216  )
        12           Au  tau(  12) = (   0.1767767  -0.8838835  -0.1470216  )
        13           Au  tau(  13) = (  -0.5303301  -0.5303301  -0.1470216  )
        14           Au  tau(  14) = (  -0.1767767  -0.8838835  -0.1470216  )
        15           Au  tau(  15) = (   0.5303301  -0.5303301  -0.1470216  )
        16           Au  tau(  16) = (   0.1767767  -0.1767767  -0.1470216  )
        17           Au  tau(  17) = (   0.3535534  -0.3535534  -0.3124210  )
        18           Au  tau(  18) = (   0.0000000   0.0000000  -0.3124210  )
        19           Au  tau(  19) = (   0.0000000  -0.3535534  -0.3124210  )
        20           Au  tau(  20) = (   0.3535534  -0.7071068  -0.3124210  )
        21           Au  tau(  21) = (  -0.3535534  -0.3535534  -0.3124210  )
        22           Au  tau(  22) = (  -0.0000000  -0.7071068  -0.3124210  )
        23           Au  tau(  23) = (  -0.3535534  -0.7071068  -0.3124210  )
        24           Au  tau(  24) = (   0.0000000  -1.0606602  -0.3124210  )

     number of k points=    36 (tetrahedron method)
                       cart. coord. in units 2pi/alat
        k(    1) = (   0.0000000   0.0000000   0.0000000), wk =   0.0156250
        k(    2) = (   0.0000000   0.0000000  -0.5441376), wk =   0.0312500
        k(    3) = (   0.0000000   0.0000000   1.0882752), wk =   0.0156250
        k(    4) = (  -0.1767767  -0.1767767  -0.1360344), wk =   0.0312500
        k(    5) = (  -0.1767767  -0.1767767  -0.6801720), wk =   0.0312500
        k(    6) = (  -0.1767767  -0.1767767   0.9522408), wk =   0.0312500
        k(    7) = (  -0.1767767  -0.1767767   0.4081032), wk =   0.0312500
        k(    8) = (   0.3535534   0.3535534   0.2720688), wk =   0.0156250
        k(    9) = (   0.3535534   0.3535534  -0.2720688), wk =   0.0312500
        k(   10) = (   0.3535534   0.3535534   1.3603439), wk =   0.0156250
        k(   11) = (   0.1767767  -0.1767767   0.0000000), wk =   0.0312500
        k(   12) = (   0.1767767  -0.1767767  -0.5441376), wk =   0.0312500
        k(   13) = (   0.1767767  -0.1767767   1.0882752), wk =   0.0312500
        k(   14) = (   0.0000000  -0.3535534  -0.1360344), wk =   0.0312500
        k(   15) = (   0.0000000  -0.3535534  -0.6801720), wk =   0.0312500
        k(   16) = (   0.0000000  -0.3535534   0.9522408), wk =   0.0312500
        k(   17) = (   0.0000000  -0.3535534   0.4081032), wk =   0.0312500
        k(   18) = (   0.5303301   0.1767767   0.2720688), wk =   0.0312500
        k(   19) = (   0.5303301   0.1767767  -0.2720688), wk =   0.0312500
        k(   20) = (   0.5303301   0.1767767   1.3603439), wk =   0.0312500
        k(   21) = (  -0.3535534   0.3535534   0.0000000), wk =   0.0156250
        k(   22) = (  -0.3535534   0.3535534  -0.5441376), wk =   0.0312500
        k(   23) = (  -0.3535534   0.3535534   1.0882752), wk =   0.0156250
        k(   24) = (  -0.5303301   0.1767767  -0.1360344), wk =   0.0312500
        k(   25) = (  -0.5303301   0.1767767  -0.6801720), wk =   0.0312500
        k(   26) = (  -0.5303301   0.1767767   0.9522408), wk =   0.0312500
        k(   27) = (  -0.5303301   0.1767767   0.4081032), wk =   0.0312500
        k(   28) = (   0.0000000   0.7071068   0.2720688), wk =   0.0156250
        k(   29) = (   0.0000000   0.7071068  -0.2720688), wk =   0.0312500
        k(   30) = (   0.0000000   0.7071068   1.3603439), wk =   0.0156250
        k(   31) = (   0.1767767  -0.1767767   0.5441376), wk =   0.0312500
        k(   32) = (   0.3535534   0.0000000   0.1360344), wk =   0.0312500
        k(   33) = (   0.3535534   0.0000000   0.6801720), wk =   0.0312500
        k(   34) = (   0.3535534   0.0000000  -0.9522408), wk =   0.0312500
        k(   35) = (   0.3535534   0.0000000  -0.4081032), wk =   0.0312500
        k(   36) = (  -0.1767767  -0.5303301   0.2720688), wk =   0.0312500

     Check: negative/imaginary core charge=   -0.000006    0.000000

     Initial potential from superposition of free atoms

     starting charge  295.99426, renormalised to  296.00000
     Number of +U iterations with fixed ns =  0
     Starting occupations:
 --- enter write_ns ---
 LDA+U parameters:
U(  1) =   3.1200   J(  1) =   0.7000   B(  1) =   0.0803
U(  2) =   3.1200   J(  2) =   0.7000   B(  2) =   0.0803
atom    1   Tr[ns(na)] (up, down, total) =   5.00000  0.00000  5.00000
   spin  1
    eigenvalues:
  1.000  1.000  1.000  1.000  1.000
    eigenvectors:
  1.000  0.000  0.000  0.000  0.000
  0.000  1.000  0.000  0.000  0.000
  0.000  0.000  1.000  0.000  0.000
  0.000  0.000  0.000  1.000  0.000
  0.000  0.000  0.000  0.000  1.000
    occupations:
  1.000  0.000  0.000  0.000  0.000
  0.000  1.000  0.000  0.000  0.000
  0.000  0.000  1.000  0.000  0.000
  0.000  0.000  0.000  1.000  0.000
  0.000  0.000  0.000  0.000  1.000
   spin  2
    eigenvalues:
  0.000  0.000  0.000  0.000  0.000
    eigenvectors:
  1.000  0.000  0.000  0.000  0.000
  0.000  1.000  0.000  0.000  0.000
  0.000  0.000  1.000  0.000  0.000
  0.000  0.000  0.000  1.000  0.000
  0.000  0.000  0.000  0.000  1.000
    occupations:
  0.000  0.000  0.000  0.000  0.000
  0.000  0.000  0.000  0.000  0.000
  0.000  0.000  0.000  0.000  0.000
  0.000  0.000  0.000  0.000  0.000
[...]
   spin  1
    eigenvalues:
  0.042  0.054  0.055  0.056  0.071
    eigenvectors:
  0.007  0.918  0.013  0.062  0.000
  0.000  0.000  0.850  0.143  0.007
  0.000  0.075  0.132  0.791  0.001
  0.993  0.007  0.000  0.000  0.000
  0.000  0.000  0.004  0.004  0.991
    occupations:
  0.054  0.000  0.001  0.001 -0.000
  0.000  0.055  0.000  0.000  0.001
  0.001  0.000  0.055 -0.000  0.001
  0.001  0.000 -0.000  0.042 -0.000
 -0.000  0.001  0.001 -0.000  0.071
   spin  2
    eigenvalues:
  1.003  1.003  1.003  1.003  1.003
    eigenvectors:
  0.000  0.000  0.000  0.995  0.005
  0.001  0.105  0.894  0.000  0.000
  0.000  0.895  0.105  0.000  0.000
  0.000  0.000  0.000  0.005  0.995
  0.999  0.000  0.001  0.000  0.000
    occupations:
  1.003 -0.000 -0.000 -0.000  0.000
 -0.000  1.003  0.000  0.000  0.000
 -0.000  0.000  1.003  0.000 -0.000
 -0.000  0.000  0.000  1.003 -0.000
  0.000  0.000 -0.000 -0.000  1.003
atomic mag. moment =    -4.737256
N of occupied +U levels =   42.320040
 --- exit write_ns ---

     total energy              =  -14679.20499755 Ry
     Harris-Foulkes estimate   =  -14669.84905978 Ry
     estimated scf accuracy    <      21.29004880 Ry

     total magnetization       =    10.50 Bohr mag/cell
     absolute magnetization    =    43.52 Bohr mag/cell

     iteration #  2     ecut=    45.00 Ry     beta= 0.10
     Davidson diagonalization with overlap
     ethr =  7.19E-03,  avg # of iterations =  1.0

[...]

     total energy              =  -14693.93544429 Ry
     Harris-Foulkes estimate   =  -14693.93544090 Ry
     estimated scf accuracy    <       0.00000123 Ry

[...]

     iteration # 20     ecut=    45.00 Ry     beta= 0.10
     Davidson diagonalization with overlap
     ethr =  4.14E-10,  avg # of iterations =  2.6

     Magnetic moment per site:
     atom:    1    charge:   13.5451    magn:    4.1916    constr:    0.0000
     atom:    2    charge:   13.5414    magn:    4.2234    constr:    0.0000
     atom:    3    charge:   13.5320    magn:   -4.2796    constr:    0.0000
     atom:    4    charge:   13.5434    magn:    4.2063    constr:    0.0000
     atom:    5    charge:   13.5358    magn:   -4.2488    constr:    0.0000
     atom:    6    charge:   13.5405    magn:    4.2135    constr:    0.0000
     atom:    7    charge:   13.5434    magn:    4.2063    constr:    0.0000
     atom:    8    charge:   13.5320    magn:   -4.2796    constr:    0.0000
     atom:    9    charge:    9.0918    magn:   -0.0186    constr:    0.0000
     atom:   10    charge:    9.0905    magn:    0.0173    constr:    0.0000
     atom:   11    charge:    9.0931    magn:    0.0022    constr:    0.0000
     atom:   12    charge:    9.0909    magn:   -0.0142    constr:    0.0000
     atom:   13    charge:    9.0916    magn:   -0.0032    constr:    0.0000
     atom:   14    charge:    9.0905    magn:    0.0151    constr:    0.0000
     atom:   15    charge:    9.0935    magn:    0.0250    constr:    0.0000
     atom:   16    charge:    9.0919    magn:    0.0067    constr:    0.0000
     atom:   17    charge:    9.0905    magn:    0.0151    constr:    0.0000
     atom:   18    charge:    9.0916    magn:   -0.0032    constr:    0.0000
     atom:   19    charge:    9.0909    magn:   -0.0142    constr:    0.0000
     atom:   20    charge:    9.0931    magn:    0.0022    constr:    0.0000
     atom:   21    charge:    9.0918    magn:   -0.0186    constr:    0.0000
     atom:   22    charge:    9.0905    magn:    0.0173    constr:    0.0000
     atom:   23    charge:    9.0935    magn:    0.0250    constr:    0.0000
     atom:   24    charge:    9.0919    magn:    0.0067    constr:    0.0000

     End of self-consistent calculation
 --- enter write_ns ---
 LDA+U parameters:
U(  1) =   3.1200   J(  1) =   0.7000   B(  1) =   0.0803
U(  2) =   3.1200   J(  2) =   0.7000   B(  2) =   0.0803
atom    1   Tr[ns(na)] (up, down, total) =   4.96341  0.77220  5.73561
   spin  1
    eigenvalues:
  0.981  0.992  0.992  0.997  1.001
    eigenvectors:
  0.000  0.010  0.040  0.939  0.010
  0.003  0.604  0.391  0.003  0.000
  0.001  0.383  0.568  0.048  0.000
  0.000  0.000  0.001  0.009  0.989
  0.997  0.003  0.000  0.000  0.000
    occupations:
  0.996  0.000  0.001  0.001  0.000
  0.000  0.992  0.000 -0.000 -0.001
  0.001  0.000  0.992 -0.000  0.000
  0.001 -0.000 -0.000  1.001 -0.000
  0.000 -0.001  0.000 -0.000  0.981
   spin  2
    eigenvalues:
  0.069  0.136  0.141  0.155  0.271
    eigenvectors:
  0.000  0.366  0.554  0.075  0.004
  0.001  0.619  0.353  0.009  0.019
  0.003  0.009  0.074  0.914  0.001
  0.997  0.001  0.000  0.002  0.000
  0.000  0.004  0.019  0.000  0.977
    occupations:
  0.141  0.004  0.004  0.001 -0.008
  0.004  0.140  0.000 -0.001 -0.018
  0.004  0.000  0.154 -0.004  0.003
  0.001 -0.001 -0.004  0.070 -0.001
 -0.008 -0.018  0.003 -0.001  0.268
atomic mag. moment =     4.191212
atom    2   Tr[ns(na)] (up, down, total) =   4.96839  0.74595  5.71434
   spin  1
    eigenvalues:
  0.984  0.992  0.994  0.997  1.002
    eigenvectors:
  0.001  0.018  0.026  0.944  0.012
  0.002  0.444  0.553  0.001  0.000
  0.005  0.532  0.422  0.039  0.003
  0.000  0.001  0.000  0.014  0.985
  0.992  0.006  0.000  0.002  0.000
    occupations:
  0.997 -0.000 -0.001 -0.001 -0.000
 -0.000  0.993 -0.001  0.000  0.000
 -0.001 -0.001  0.993  0.000  0.001
 -0.001  0.000  0.000  1.002 -0.000
 -0.000  0.000  0.001 -0.000  0.984
   spin  2
    eigenvalues:
  0.069  0.121  0.143  0.152  0.260
    eigenvectors:
  0.000  0.960  0.000  0.038  0.002
  0.001  0.032  0.042  0.892  0.033
  0.000  0.002  0.953  0.043  0.001
  0.999  0.000  0.000  0.001  0.000
  0.000  0.005  0.005  0.026  0.964
    occupations:
  0.123 -0.005 -0.002  0.000  0.007
 -0.005  0.154  0.001  0.003  0.020
 -0.002  0.001  0.144  0.001 -0.004
  0.000  0.003  0.001  0.069  0.000
  0.007  0.020 -0.004  0.000  0.256
atomic mag. moment =     4.222436
atom    3   Tr[ns(na)] (up, down, total) =   0.70201  4.97378  5.67579
   spin  1
    eigenvalues:
  0.071  0.121  0.142  0.144  0.224
    eigenvectors:
  0.000  0.997  0.001  0.001  0.000
  0.000  0.002  0.841  0.098  0.059
  0.002  0.000  0.122  0.860  0.016
  0.998  0.000  0.001  0.001  0.000
  0.000  0.000  0.035  0.040  0.925
    occupations:
  0.121 -0.001 -0.001 -0.000 -0.002
 -0.001  0.147  0.003 -0.001  0.019
 -0.001  0.003  0.145  0.003  0.010
 -0.000 -0.001  0.003  0.071  0.000
 -0.002  0.019  0.010  0.000  0.218
   spin  2
    eigenvalues:
  0.988  0.993  0.994  0.998  1.002
    eigenvectors:
  0.000  0.001  0.024  0.970  0.005
  0.004  0.557  0.433  0.006  0.000
  0.007  0.440  0.533  0.019  0.002
  0.000  0.001  0.000  0.005  0.993
  0.989  0.000  0.010  0.001  0.000
    occupations:
  0.998 -0.000 -0.001 -0.000  0.000
 -0.000  0.993  0.000 -0.000 -0.000
 -0.001  0.000  0.993  0.000 -0.000
 -0.000 -0.000  0.000  1.002  0.000
  0.000 -0.000 -0.000  0.000  0.988
atomic mag. moment =    -4.271767
atom    4   Tr[ns(na)] (up, down, total) =   4.96620  0.76037  5.72657
   spin  1
    eigenvalues:
  0.983  0.992  0.992  0.997  1.002
    eigenvectors:
  0.000  0.009  0.018  0.971  0.003
  0.000  0.135  0.856  0.008  0.000
  0.000  0.853  0.126  0.017  0.003
  0.000  0.003  0.000  0.004  0.993
  0.999  0.000  0.001  0.000  0.000
    occupations:
  0.997 -0.000 -0.001 -0.000  0.000
 -0.000  0.992  0.000 -0.000  0.000
 -0.001  0.000  0.992  0.001  0.000
 -0.000 -0.000  0.001  1.002 -0.000
  0.000  0.000  0.000 -0.000  0.983
   spin  2
    eigenvalues:
  0.068  0.124  0.149  0.152  0.267
    eigenvectors:
  0.000  0.988  0.007  0.005  0.000
  0.000  0.002  0.052  0.921  0.024
  0.000  0.010  0.939  0.047  0.004
  0.999  0.000  0.001  0.000  0.000
  0.000  0.000  0.001  0.027  0.972
    occupations:
  0.125 -0.001 -0.003  0.000 -0.000
 -0.001  0.155  0.002 -0.002  0.018
 -0.003  0.002  0.149  0.002  0.007
  0.000 -0.002  0.002  0.068 -0.000
 -0.000  0.018  0.007 -0.000  0.264
atomic mag. moment =     4.205826
atom    5   Tr[ns(na)] (up, down, total) =   0.72600  4.96992  5.69592
   spin  1
    eigenvalues:
  0.070  0.121  0.143  0.145  0.247
    eigenvectors:
  0.000  0.945  0.052  0.003  0.000
  0.000  0.011  0.045  0.881  0.063
  0.002  0.044  0.895  0.059  0.000
  0.998  0.000  0.001  0.000  0.000
  0.000  0.000  0.007  0.057  0.936
    occupations:
  0.123  0.003  0.004 -0.000  0.001
  0.003  0.151 -0.000 -0.001  0.025
  0.004 -0.000  0.142  0.003  0.002
 -0.000 -0.001  0.003  0.070  0.001
  0.001  0.025  0.002  0.001  0.240
   spin  2
    eigenvalues:
  0.986  0.992  0.993  0.997  1.002
    eigenvectors:
  0.000  0.023  0.040  0.920  0.016
  0.001  0.323  0.669  0.007  0.000
  0.000  0.653  0.290  0.055  0.002
  0.000  0.000  0.000  0.018  0.982
  0.999  0.000  0.000  0.000  0.000
    occupations:
  0.997 -0.000 -0.001 -0.001 -0.000
 -0.000  0.993  0.000  0.000 -0.000
 -0.001  0.000  0.993  0.000  0.000
 -0.001  0.000  0.000  1.002 -0.000
 -0.000 -0.000  0.000 -0.000  0.986
atomic mag. moment =    -4.243918
atom    6   Tr[ns(na)] (up, down, total) =   4.96598  0.75140  5.71738
   spin  1
    eigenvalues:
  0.983  0.992  0.993  0.997  1.002
    eigenvectors:
  0.002  0.001  0.051  0.935  0.012
  0.006  0.440  0.519  0.035  0.000
  0.002  0.552  0.427  0.018  0.002
  0.000  0.001  0.003  0.010  0.986
  0.991  0.006  0.000  0.003  0.000
    occupations:
  0.997  0.001  0.000 -0.001  0.001
  0.001  0.993  0.001  0.000  0.001
  0.000  0.001  0.992  0.001 -0.000
 -0.001  0.000  0.001  1.002  0.000
  0.001  0.001 -0.000  0.000  0.983
   spin  2
    eigenvalues:
  0.069  0.128  0.144  0.155  0.255
    eigenvectors:
  0.000  0.926  0.005  0.048  0.022
  0.000  0.044  0.000  0.949  0.006
  0.001  0.003  0.988  0.000  0.008
  0.998  0.000  0.001  0.000  0.000
  0.000  0.027  0.006  0.002  0.964
    occupations:
  0.132  0.004  0.001 -0.000 -0.019
  0.004  0.155 -0.001  0.002  0.009
  0.001 -0.001  0.144  0.002 -0.010
 -0.000  0.002  0.002  0.070  0.001
 -0.019  0.009 -0.010  0.001  0.251
atomic mag. moment =     4.214586
atom    7   Tr[ns(na)] (up, down, total) =   4.96620  0.76037  5.72657
   spin  1
    eigenvalues:
  0.983  0.992  0.992  0.997  1.002
    eigenvectors:
  0.000  0.009  0.018  0.971  0.003
  0.000  0.135  0.856  0.008  0.000
  0.000  0.853  0.126  0.017  0.003
  0.000  0.003  0.000  0.004  0.993
  0.999  0.000  0.001  0.000  0.000
    occupations:
  0.997 -0.000 -0.001 -0.000  0.000
 -0.000  0.992  0.000 -0.000  0.000
 -0.001  0.000  0.992  0.001  0.000
 -0.000 -0.000  0.001  1.002 -0.000
  0.000  0.000  0.000 -0.000  0.983
   spin  2
    eigenvalues:
  0.068  0.124  0.149  0.152  0.267
    eigenvectors:
  0.000  0.988  0.007  0.005  0.000
  0.000  0.002  0.052  0.921  0.024
  0.000  0.010  0.939  0.047  0.004
  0.999  0.000  0.001  0.000  0.000
  0.000  0.000  0.001  0.027  0.972
    occupations:
  0.125 -0.001 -0.003  0.000 -0.000
 -0.001  0.155  0.002 -0.002  0.018
 -0.003  0.002  0.149  0.002  0.007
  0.000 -0.002  0.002  0.068 -0.000
 -0.000  0.018  0.007 -0.000  0.264
atomic mag. moment =     4.205826
atom    8   Tr[ns(na)] (up, down, total) =   0.70201  4.97378  5.67579
   spin  1
    eigenvalues:
  0.071  0.121  0.142  0.144  0.224
    eigenvectors:
  0.000  0.997  0.001  0.001  0.000
  0.000  0.002  0.841  0.098  0.059
  0.002  0.000  0.122  0.860  0.016
  0.998  0.000  0.001  0.001  0.000
  0.000  0.000  0.035  0.040  0.925
    occupations:
  0.121 -0.001 -0.001 -0.000 -0.002
 -0.001  0.147  0.003 -0.001  0.019
 -0.001  0.003  0.145  0.003  0.010
 -0.000 -0.001  0.003  0.071  0.000
 -0.002  0.019  0.010  0.000  0.218
   spin  2
    eigenvalues:
  0.988  0.993  0.994  0.998  1.002
    eigenvectors:
  0.000  0.001  0.024  0.970  0.005
  0.004  0.557  0.433  0.006  0.000
  0.007  0.440  0.533  0.019  0.002
  0.000  0.001  0.000  0.005  0.993
  0.989  0.000  0.010  0.001  0.000
    occupations:
  0.998 -0.000 -0.001 -0.000  0.000
 -0.000  0.993  0.000 -0.000 -0.000
 -0.001  0.000  0.993  0.000 -0.000
 -0.000 -0.000  0.000  1.002  0.000
  0.000 -0.000 -0.000  0.000  0.988
atomic mag. moment =    -4.271767
N of occupied +U levels =   45.667970
 --- exit write_ns ---

 ------ SPIN UP ------------

          k = 0.0000 0.0000 0.0000 ( 13629 PWs)   bands (ev):

   -66.4150 -66.4017 -66.3679 -66.3672 -66.3449 -61.8914 -61.8907 -61.8904
   -35.1886 -35.1873 -35.1627 -35.1553 -35.1553 -35.1312 -35.1233 -35.1169
   -35.1102 -35.0898 -35.0896 -35.0845 -35.0814 -35.0804 -35.0505 -30.7241
   -30.7203 -30.7202 -30.7187 -30.7172 -30.7167 -30.7150 -30.7131 -30.7055
     5.9492   7.5516   7.6309   8.0860   8.1503   8.3248   8.4506   8.4767
     8.7058   8.7067   9.0376   9.1640   9.3516   9.3888   9.4232   9.4316
     9.4491   9.4672   9.4954   9.5597   9.5689   9.6042   9.6281   9.6427
     9.6667   9.6789   9.7051   9.7202   9.8481   9.8756   9.9417   9.9449
     9.9473   9.9557   9.9935  10.0201  10.0465  10.0900  10.1378  10.2349
    10.2619  10.2639  10.2688  10.3084  10.3428  10.3617  10.3648  10.4490
    10.4776  10.4980  10.5165  10.5240  10.5717  10.6194  10.6484  10.6972
    10.7972  10.8146  10.8564  10.9195  11.0597  11.0666  11.0928  11.1338
    11.1517  11.1707  11.2598  11.3316  11.3344  11.3956  11.4325  11.6155
    11.6941  11.8060  11.8178  11.8236  11.8244  11.8358  11.8605  11.9220
    11.9290  11.9781  12.0934  12.1358  12.2335  12.2469  12.2497  12.2700
    12.2721  12.2739  12.3163  12.3584  12.3806  12.4431  12.4682  12.5145
    12.5234  12.5438  12.5521  12.5726  12.6859  12.6958  12.6976  12.7267
    12.8675  12.9286  12.9308  13.0065  13.0198  13.2432  13.2682  13.2709
    13.2710  13.3610  14.1224  15.0189  15.0587  15.0919  15.2095  15.7270
    16.2358  16.3757  16.4856  16.6878  16.8661  17.0178  17.0819  17.0895
    17.3129  17.4546  17.4681  17.5343  17.6637  17.8345  17.9579  18.1689
    18.4892  18.5636  19.1000  19.1387  19.1469  19.3223  19.4028  19.4550
    19.5598  19.6649

[...]

          k =-0.1768-0.1768-0.1360 ( 13673 PWs)   bands (ev):

[...]

 ------ SPIN DOWN ----------

[...]

          k = 0.3536 0.0000-0.4081 ( 13687 PWs)   bands (ev):

[...]

          k =-0.1768-0.5303 0.2721 ( 13683 PWs)   bands (ev):

   -66.5155 -66.5149 -66.4879 -61.8517 -61.8287 -61.8095 -61.8089 -61.8057
   -35.2814 -35.2814 -35.2724 -35.2520 -35.2518 -35.2335 -35.2332 -35.2065
   -35.2036 -30.6863 -30.6771 -30.6709 -30.6618 -30.6578 -30.6499 -30.6432
   -30.6427 -30.6427 -30.6380 -30.6354 -30.6313 -30.6295 -30.6280 -30.6234
     6.7315   7.5722   7.7222   8.2861   8.5562   8.5815   8.7299   8.8020
     8.8604   8.9018   8.9930   9.0196   9.0924   9.1715   9.2594   9.2830
     9.2881   9.3308   9.4142   9.4201   9.4570   9.4630   9.5044   9.6104
     9.6306   9.6577   9.7094   9.7402   9.8137   9.8523   9.8964   9.9603
    10.0063  10.0376  10.0724  10.0938  10.2239  10.2380  10.2567  10.3208
    10.3530  10.3693  10.3830  10.4704  10.5383  10.5960  10.6617  10.6981
    10.7358  10.7992  10.8790  10.9004  10.9236  10.9731  11.0023  11.0524
    11.0971  11.1334  11.1682  11.2500  11.2689  11.3136  11.3348  11.3782
    11.4253  11.4733  11.5341  11.5895  11.6067  11.6359  11.7097  11.7655
    11.8260  11.8340  11.8850  11.9396  11.9661  11.9958  12.0733  12.0992
    12.1406  12.1852  12.2315  12.2622  12.2792  12.3016  12.3049  12.3233
    12.4228  12.4547  12.4735  12.5494  12.5641  12.6296  12.6577  12.7625
    12.7829  12.8159  12.8663  12.9636  13.2069  13.2960  13.3152  13.3495
    13.8020  14.0338  14.6151  14.7241  15.1405  15.2813  15.4185  15.5177
    15.5577  15.6826  15.9905  16.1543  16.6012  16.9357  17.0124  17.1640
    17.2574  17.3052  17.3231  17.3820  17.4418  17.4728  17.5115  17.5375
    17.5787  17.5986  17.7256  17.8233  17.9358  17.9963  18.0811  18.1317
    18.2764  18.3984  18.4397  18.5043  18.5796  18.7464  19.1870  19.9716
    20.1760  20.3532

     the Fermi energy is    15.5754 ev

!    total energy              =  -14693.93545831 Ry
     Harris-Foulkes estimate   =  -14693.93544396 Ry
     estimated scf accuracy    <       0.00000046 Ry

     total all-electron energy =   -626921.531180 Ry

     The total energy is the sum of the following terms:

     one-electron contribution =    -698.44640045 Ry
     hartree contribution      =     651.61091423 Ry
     xc contribution           =    -738.11812113 Ry
     ewald contribution        =   -2207.56121140 Ry
     Hubbard energy            =       0.45463910 Ry
     one-center paw contrib.   =  -11701.87527865 Ry

     total magnetization       =     8.35 Bohr mag/cell
     absolute magnetization    =    36.78 Bohr mag/cell

     convergence has been achieved in  20 iterations

     Writing output data file mnau2.save/

     General routines

     Parallel routines

     Hubbard U routines

   This run was terminated on:  12:19:50  26Mar2019

   JOB DONE.