     Program PWSCF v.6.1 (svn rev. 13369) starts on 24Mar2019 at 15:45: 1

     Current dimensions of program PWSCF are:
     Max number of different atomic species (ntypx) = 10
     Max number of k-points (npk) =  40000
     Max angular momentum in pseudopotentials (lmaxx) =  3
               file Mn.pbe-spn-kjpaw_psl.0.3.1.UPF: wavefunction(s)  3P 3D renormalized
               file Au.pbe-dn-kjpaw_psl.0.1.UPF: wavefunction(s)  6S 6P 5D renormalized

     Subspace diagonalization in iterative solution of the eigenvalue problem:
     a serial algorithm will be used

     warning: symmetry operation #  2 not compatible with FFT grid.
  -1   0   0
   0  -1   0
   1   1   1
     warning: symmetry operation #  3 not compatible with FFT grid.
  -1   0   0
   0   1   0
   0  -1  -1
     warning: symmetry operation #  4 not compatible with FFT grid.
   1   0   0
   0  -1   0
  -1   0  -1
     warning: symmetry operation #  5 not compatible with FFT grid.
   0   1   0
   1   0   0
  -1  -1  -1
     warning: symmetry operation #  7 not compatible with FFT grid.
   0  -1   0
   1   0   0
   0   1   1
     warning: symmetry operation #  8 not compatible with FFT grid.
   0   1   0
  -1   0   0
   1   0   1
     warning: symmetry operation # 10 not compatible with FFT grid.
   1   0   0
   0   1   0
  -1  -1  -1
     warning: symmetry operation # 11 not compatible with FFT grid.
   1   0   0
   0  -1   0
   0   1   1
     warning: symmetry operation # 12 not compatible with FFT grid.
  -1   0   0
   0   1   0
   1   0   1
     warning: symmetry operation # 13 not compatible with FFT grid.
   0  -1   0
  -1   0   0
   1   1   1
     warning: symmetry operation # 15 not compatible with FFT grid.
   0   1   0
  -1   0   0
   0  -1  -1
     warning: symmetry operation # 16 not compatible with FFT grid.
   0  -1   0
   1   0   0
  -1   0  -1

     bravais-lattice index     =            0
     lattice parameter (alat)  =       6.3686  a.u.
     unit-cell volume          =     335.6689 (a.u.)^3
     number of atoms/cell      =            3
     number of atomic types    =            2
     number of electrons       =        37.00
     number of Kohn-Sham states=           23
     kinetic-energy cutoff     =      45.0000  Ry
     charge density cutoff     =     300.0000  Ry
     convergence threshold     =      1.0E-06
     mixing beta               =       0.3000
     number of iterations used =            8  plain     mixing
     Exchange-correlation      =  SLA  PW   PBX  PBC ( 1  4  3  4 0 0)

     celldm(1)=   6.368621  celldm(2)=   0.000000  celldm(3)=   0.000000
     celldm(4)=   0.000000  celldm(5)=   0.000000  celldm(6)=   0.000000

     crystal axes: (cart. coord. in units of alat)
               a(1) = (   1.000000   0.000000   0.000000 )
               a(2) = (   0.000000   1.000000   0.000000 )
               a(3) = (  -0.500000  -0.500000   1.299496 )

     reciprocal axes: (cart. coord. in units 2 pi/alat)
               b(1) = (  1.000000 -0.000000  0.384765 )
               b(2) = ( -0.000000  1.000000  0.384765 )
               b(3) = (  0.000000  0.000000  0.769529 )

     PseudoPot. # 1 for Mn read from file:
     ../../pseudo/Mn.pbe-spn-kjpaw_psl.0.3.1.UPF
     MD5 check sum: 7eef95dd2aae66803482eea66ebeebf1
     Pseudo is Projector augmented-wave + core cor, Zval = 15.0
     Generated using "atomic" code by A. Dal Corso  v.5.0.99 svn rev. 10869
     Shape of augmentation charge: PSQ
     Using radial grid of 1187 points,  6 beta functions with:
                l(1) =   0
                l(2) =   0
                l(3) =   1
                l(4) =   1
                l(5) =   2
                l(6) =   2
     Q(r) pseudized with 0 coefficients

     PseudoPot. # 2 for Au read from file:
     ../../pseudo/Au.pbe-dn-kjpaw_psl.0.1.UPF
     MD5 check sum: 5c9b92683623e7ae2ab3f8e525febab6
     Pseudo is Projector augmented-wave + core cor, Zval = 11.0
     Generated using "atomic" code by A. Dal Corso  v.5.0.2 svn rev. 9415
     Shape of augmentation charge: PSQ
     Using radial grid of 1279 points,  6 beta functions with:
                l(1) =   0
                l(2) =   0
                l(3) =   1
                l(4) =   1
                l(5) =   2
                l(6) =   2
     Q(r) pseudized with 0 coefficients

     atomic species   valence    mass     pseudopotential
        Mn            15.00     1.00000     Mn( 1.00)
        Au            11.00     1.00000     Au( 1.00)

     Starting magnetic structure
     atomic species   magnetization
        Mn           1.000
        Au           0.000

      4 Sym. Ops., with inversion, found

   Cartesian axes

     site n.     atom                  positions (alat units)
         1           Mn  tau(   1) = (   0.0000000   0.0000000   0.0000000  )
         2           Au  tau(   2) = (  -0.0000000  -0.0000000   0.8836570  )
         3           Au  tau(   3) = (   0.4999999   0.4999999   0.4158386  )

     number of k points=   150 (tetrahedron method)

     Number of k-points >= 100: set verbosity='high' to print them.

     Check: negative/imaginary core charge=   -0.000007    0.000000

     Initial potential from superposition of free atoms

     starting charge   36.99928, renormalised to   37.00000
     Starting wfc are   28 randomized atomic wfcs
     Checking if some PAW data can be deallocated...

     Self-consistent Calculation

     iteration #  1     ecut=    45.00 Ry     beta=0.30
     Davidson diagonalization with overlap
     ethr =  1.00E-02,  avg # of iterations =  3.0

     total energy              =   -1835.64105153 Ry
     Harris-Foulkes estimate   =   -1833.79109501 Ry
     estimated scf accuracy    <       2.67998597 Ry

     total magnetization       =     5.20 Bohr mag/cell
     absolute magnetization    =     5.40 Bohr mag/cell

[...]

     total energy              =   -1836.81611862 Ry
     Harris-Foulkes estimate   =   -1836.81610872 Ry
     estimated scf accuracy    <       0.00000681 Ry

[...]

     iteration #  9     ecut=    45.00 Ry     beta=0.30
     Davidson diagonalization with overlap
     ethr =  1.84E-08,  avg # of iterations =  2.4

     Magnetic moment per site:
     atom:    1    charge:   13.5817    magn:    3.8572    constr:    0.0000
     atom:    2    charge:    9.0717    magn:    0.0430    constr:    0.0000
     atom:    3    charge:    9.0717    magn:    0.0430    constr:    0.0000

     End of self-consistent calculation

     Number of k-points >= 100: set verbosity='high' to print the bands.

     the Fermi energy is    15.3242 ev

!    total energy              =   -1836.81611382 Ry
     Harris-Foulkes estimate   =   -1836.81611267 Ry
     estimated scf accuracy    <       0.00000060 Ry

     total all-electron energy =    -78365.265579 Ry

     The total energy is the sum of the following terms:

     one-electron contribution =     -87.51803562 Ry
     hartree contribution      =      81.52993744 Ry
     xc contribution           =     -92.18320826 Ry
     ewald contribution        =    -275.93487887 Ry
     one-center paw contrib.   =   -1462.70992852 Ry

     total magnetization       =     3.95 Bohr mag/cell
     absolute magnetization    =     4.29 Bohr mag/cell

     convergence has been achieved in   9 iterations

     Writing output data file mnau2.save

     General routines

     Parallel routines

   This run was terminated on:  15:58:55  24Mar2019

   JOB DONE.